$*$$$$$$$$$$$$$$$$$$$$$$$$$$$$$$$$$$$$$$$$$$$$$$$$$$$$$$$$$$$$$$$$$
$*
$*                    NX v10.0.0.24 TRANSLATOR
$*                    FOR NX NASTRAN VERSION 10.0
$*
$*             FEM FILE: C:\Users\ado\Documents\WSU Classes\ME7060_Reliability\Class Project\Wing Model\WING2_wt_springs\Wing3_fem1.fem
$*             SIM FILE: C:\Users\ado\Documents\WSU Classes\ME7060_Reliability\Class Project\Wing Model\WING2_wt_springs\Wing3_sim1.sim
$*        ANALYSIS TYPE: Structural
$*        SOLUTION NAME: Solution 1
$*        SOLUTION TYPE: SOL 103 Real Eigenvalues
$*
$*    SOLVER INPUT FILE: wing3_sim1-solution_1.dat
$*        CREATION DATE: 12-Apr-2016
$*        CREATION TIME: 13:39:54
$*             HOSTNAME: DESKTOP-5UE3P8V
$*      NASTRAN LICENSE: Desktop Bundle
$*
$*                UNITS: mm (milli-newton)
$*                      ... LENGTH : mm
$*                      ... TIME   : sec
$*                      ... MASS   : kilogram (kg)
$*                      ... TEMPERATURE : deg Celsius
$*                      ... FORCE  : milli-newton
$*                      ... THERMAL ENERGY : mN-mm (micro-joule)
$*
$* IMPORTANT NOTE:
$*     This banner was generated by NX and altering this information
$*     may compromise the NX post processing of results.
$*
$*$$$$$$$$$$$$$$$$$$$$$$$$$$$$$$$$$$$$$$$$$$$$$$$$$$$$$$$$$$$$$$$$$
$*
$*$$$$$$$$$$$$$$$$$$$$$$$$$$$$$$$$$$$
$*
$* FILE MANAGEMENT
$*
$*$$$$$$$$$$$$$$$$$$$$$$$$$$$$$$$$$$$
$*
$*
$*$$$$$$$$$$$$$$$$$$$$$$$$$$$$$$$$$$$
$*
$* EXECUTIVE CONTROL
$*
$*$$$$$$$$$$$$$$$$$$$$$$$$$$$$$$$$$$$
$*
ID,NASTRAN,wing3_sim1-solution_1
SOL 103
CEND
$*
$*$$$$$$$$$$$$$$$$$$$$$$$$$$$$$$$$$$$
$*
$* CASE CONTROL
$*
$*$$$$$$$$$$$$$$$$$$$$$$$$$$$$$$$$$$$
$*
ECHO = NONE
SPC = 1
METHOD = 100
OUTPUT
DISPLACEMENT(PLOT,REAL) = ALL
STRESS(PLOT,REAL,VONMISES,CENTER) = ALL
$*  NX Step: Subcase - Eigenvalue Method 1
SUBCASE 1
LABEL = Subcase - Eigenvalue Method 1
METHOD = 100
$*
$*$$$$$$$$$$$$$$$$$$$$$$$$$$$$$$$$$$$
$*
$* BULK DATA
$*
$*$$$$$$$$$$$$$$$$$$$$$$$$$$$$$$$$$$$
$*
BEGIN BULK
$*
$* SOLUTION CARDS
$*
$*  NX Modeling Object: Real Eigenvalue - Lanczos1
EIGRL        100                      10       0       7            MASS
$*
$* PARAM CARDS
$*
PARAM      K6ROT100.0000
PARAM     OIBULK     YES
PARAM    OMACHPR     YES
PARAM       POST      -2
PARAM    POSTEXT     YES
PARAM    UNITSYS   MN-MM
$*
$* GRID CARDS
$*
GRID*               4001               05.4087635040E+011.8549142838E+01+
*       -1.686128296E+03               0
GRID*               3995               06.1493078437E+011.2086807727E+01+
*       3.3003046634E+01               0
GRID*               3996               05.3745528622E+011.1949797046E+01+
*       2.8529995497E+01               0
GRID*               3997               04.5999325515E+011.1767281794E+01+
*       2.4057722678E+01               0
GRID*               3998               03.8257244449E+011.1397769453E+01+
*       1.9587830041E+01               0
GRID*               3999               03.0520567070E+011.0884879761E+01+
*       1.5121057849E+01               0
GRID*               4000               02.2795392252E+011.0191384969E+01+
*       1.0660926532E+01               0
GRID*               3644               03.8403961997E+011.8376256044E+01+
*       -1.686128224E+03               0
GRID*               3645               02.2725249122E+011.7945665747E+01+
*       -1.686128181E+03               0
GRID*               3646               07.0553438321E+001.7270542751E+01+
*       -1.686128171E+03               0
GRID*               3647               0-8.598468259E+001.6280000348E+01+
*       -1.686128174E+03               0
GRID*               3648               0-2.422645437E+011.4927502094E+01+
*       -1.686128174E+03               0
GRID*               1348               08.1113798790E+011.8117682188E+01+
*       -1.675637127E+03               0
GRID*               1349               09.5837673078E+011.7596476208E+01+
*       -1.675607272E+03               0
GRID*               1350               01.1055668326E+021.6930142057E+01+
*       -1.675577070E+03               0
GRID*               1351               01.2525583475E+021.5949260325E+01+
*       -1.675546985E+03               0
GRID*               1352               01.3992296067E+021.4552084193E+01+
*       -1.675517009E+03               0
GRID*               1353               01.5453338463E+021.2670526585E+01+
*       -1.675487384E+03               0
GRID*               1354               01.6904671095E+021.0135344478E+01+
*       -1.675459288E+03               0
GRID*               1355               08.1092776650E+011.8079345569E+01+
*       -1.665146209E+03               0
GRID*               1356               09.5778109843E+011.7559723821E+01+
*       -1.665086673E+03               0
GRID*               1357               01.1045835857E+021.6894792518E+01+
*       -1.665026701E+03               0
GRID*               1358               01.2511890885E+021.5916656298E+01+
*       -1.664966775E+03               0
GRID*               1359               01.3974739264E+021.4522035463E+01+
*       -1.664907106E+03               0
GRID*               1360               01.5431981179E+021.2645919985E+01+
*       -1.664848213E+03               0
GRID*               1361               01.6879519377E+021.0115932592E+01+
*       -1.664791628E+03               0
GRID*               1362               08.1071829619E+011.8040945225E+01+
*       -1.654655491E+03               0
GRID*               1363               09.5718715163E+011.7522884062E+01+
*       -1.654566403E+03               0
GRID*               1364               01.1036030622E+021.6859456402E+01+
*       -1.654476823E+03               0
GRID*               1365               01.2498235172E+021.5884059839E+01+
*       -1.654387277E+03               0
GRID*               1366               01.3957227354E+021.4491983511E+01+
*       -1.654298117E+03               0
GRID*               1367               01.5410670018E+021.2621216945E+01+
*       -1.654210025E+03               0
GRID*               1368               01.6854403450E+021.0096452385E+01+
*       -1.654124704E+03               0
GRID*               1369               08.1050937003E+011.8002483284E+01+
*       -1.644164900E+03               0
GRID*               1370               09.5659439087E+011.7485963473E+01+
*       -1.644046367E+03               0
GRID*               1371               01.1026244464E+021.6824136238E+01+
*       -1.643927298E+03               0
GRID*               1372               01.2484604937E+021.5851474027E+01+
*       -1.643808271E+03               0
GRID*               1373               01.3939745859E+021.4461941521E+01+
*       -1.643689736E+03               0
GRID*               1374               01.5389388281E+021.2596442625E+01+
*       -1.643572457E+03               0
GRID*               1375               01.6829308444E+021.0076930991E+01+
*       -1.643458210E+03               0
GRID*               1376               08.1030081731E+011.7963961838E+01+
*       -1.633674392E+03               0
GRID*               1377               09.5600243532E+011.7448967971E+01+
*       -1.633526491E+03               0
GRID*               1378               01.1016471289E+021.6788833655E+01+
*       -1.633378016E+03               0
GRID*               1379               01.2470991792E+021.5818899995E+01+
*       -1.633229596E+03               0
GRID*               1380               01.3922284528E+021.4431918512E+01+
*       -1.633081749E+03               0
GRID*               1381               01.5368125069E+021.2571613977E+01+
*       -1.632935275E+03               0
GRID*               1382               01.6804225989E+021.0057383904E+01+
*       -1.632791973E+03               0
GRID*               1383               08.1009251080E+011.7925382877E+01+
*       -1.623183936E+03               0
GRID*               1384               09.5541101004E+011.7411902910E+01+
*       -1.623006720E+03               0
GRID*               1385               01.1006706757E+021.6753549540E+01+
*       -1.622828895E+03               0
GRID*               1386               01.2457389836E+021.5786337310E+01+
*       -1.622651136E+03               0
GRID*               1387               01.3904836385E+021.4401920272E+01+
*       -1.622474013E+03               0
GRID*               1388               01.5346873403E+021.2546742399E+01+
*       -1.622298332E+03               0
GRID*               1389               01.6779151185E+021.0037820396E+01+
*       -1.622125890E+03               0
GRID*               1390               08.0988436196E+011.7886748284E+01+
*       -1.612693513E+03               0
GRID*               1391               09.5481992588E+011.7374773168E+01+
*       -1.612487016E+03               0
GRID*               1392               01.0996947900E+021.6718284218E+01+
*       -1.612279877E+03               0
GRID*               1393               01.2443795071E+021.5753784393E+01+
*       -1.612072813E+03               0
GRID*               1394               01.3887396828E+021.4371950247E+01+
*       -1.611866433E+03               0
GRID*               1395               01.5325628876E+021.2521835623E+01+
*       -1.611661536E+03               0
GRID*               1396               01.6754081099E+021.0018246199E+01+
*       -1.611459900E+03               0
GRID*               1397               08.0967631234E+011.7848059856E+01+
*       -1.602203110E+03               0
GRID*               1398               09.5422905814E+011.7337583229E+01+
*       -1.601967355E+03               0
GRID*               1399               01.0987192764E+021.6683037610E+01+
*       -1.601730924E+03               0
GRID*               1400               01.2430204873E+021.5721238902E+01+
*       -1.601494575E+03               0
GRID*               1401               01.3869962905E+021.4342010273E+01+
*       -1.601258950E+03               0
GRID*               1402               01.5304388746E+021.2496898996E+01+
*       -1.601024829E+03               0
GRID*               1403               01.6729013964E+029.9986649428E+00+
*       -1.600793965E+03               0
GRID*               1404               08.0946832516E+011.7809319315E+01+
*       -1.591712721E+03               0
GRID*               1405               09.5363832780E+011.7300337254E+01+
*       -1.591447721E+03               0
GRID*               1406               01.0977440108E+021.6647809374E+01+
*       -1.591182011E+03               0
GRID*               1407               01.2416617567E+021.5688698027E+01+
*       -1.590916390E+03               0
GRID*               1408               01.3852532765E+021.4312101117E+01+
*       -1.590651526E+03               0
GRID*               1409               01.5283151339E+021.2471936335E+01+
*       -1.590388175E+03               0
GRID*               1410               01.6703948716E+029.9790789747E+00+
*       -1.590128064E+03               0
GRID*               1411               08.0926037846E+011.7770528325E+01+
*       -1.581222339E+03               0
GRID*               1412               09.5304768673E+011.7263039145E+01+
*       -1.580928104E+03               0
GRID*               1413               01.0967689164E+021.6612599005E+01+
*       -1.580633124E+03               0
GRID*               1414               01.2403032105E+021.5656158713E+01+
*       -1.580338239E+03               0
GRID*               1415               01.3835105270E+021.4282222867E+01+
*       -1.580044138E+03               0
GRID*               1416               01.5261915647E+021.2446950487E+01+
*       -1.579751555E+03               0
GRID*               1417               01.6678884716E+029.9594898537E+00+
*       -1.579462183E+03               0
GRID*               1418               08.0905246034E+011.7731688507E+01+
*       -1.570731963E+03               0
GRID*               1419               09.5245710690E+011.7225692584E+01+
*       -1.570408497E+03               0
GRID*               1420               01.0957939472E+021.6577405910E+01+
*       -1.570084253E+03               0
GRID*               1421               01.2389447841E+021.5623617813E+01+
*       -1.569760108E+03               0
GRID*               1422               01.3817679733E+021.4252375195E+01+
*       -1.569436773E+03               0
GRID*               1423               01.5240681076E+021.2421943691E+01+
*       -1.569114955E+03               0
GRID*               1424               01.6653821587E+029.9398986517E+00+
*       -1.568796314E+03               0
GRID*               1425               08.0884456633E+011.7692801441E+01+
*       -1.560241590E+03               0
GRID*               1426               09.5186657301E+011.7188301070E+01+
*       -1.559888898E+03               0
GRID*               1427               01.0948190761E+021.6542229455E+01+
*       -1.559535393E+03               0
GRID*               1428               01.2375864378E+021.5591072190E+01+
*       -1.559181990E+03               0
GRID*               1429               01.3800255742E+021.4222557530E+01+
*       -1.558829422E+03               0
GRID*               1430               01.5219447285E+021.2396917809E+01+
*       -1.558478369E+03               0
GRID*               1431               01.6628759105E+029.9203061389E+00+
*       -1.558130454E+03               0
GRID*               1432               08.0863669937E+011.7653868664E+01+
*       -1.549751221E+03               0
GRID*               1433               09.5127607720E+011.7150867943E+01+
*       -1.549369304E+03               0
GRID*               1434               01.0938442873E+021.6507069002E+01+
*       -1.548986540E+03               0
GRID*               1435               01.2362281469E+021.5558518773E+01+
*       -1.548603883E+03               0
GRID*               1436               01.3782833052E+021.4192769171E+01+
*       -1.548222082E+03               0
GRID*               1437               01.5198214079E+021.2371874470E+01+
*       -1.547841791E+03               0
GRID*               1438               01.6603697142E+029.9007128987E+00+
*       -1.547464598E+03               0
GRID*               1439               08.0842885645E+011.7614891714E+01+
*       -1.539260853E+03               0
GRID*               1440               09.5068561387E+011.7113396411E+01+
*       -1.538849714E+03               0
GRID*               1441               01.0928695713E+021.6471923923E+01+
*       -1.538437693E+03               0
GRID*               1442               01.2348700111E+021.5525952686E+01+
*       -1.538025782E+03               0
GRID*               1443               01.3765411514E+021.4163009349E+01+
*       -1.537614748E+03               0
GRID*               1444               01.5176981353E+021.2346815160E+01+
*       -1.537205219E+03               0
GRID*               1445               01.6578635622E+029.8811193972E+00+
*       -1.536798747E+03               0
GRID*               1446               08.0822102931E+011.7575872126E+01+
*       -1.528770487E+03               0
GRID*               1447               09.5009517809E+011.7075889561E+01+
*       -1.528330128E+03               0
GRID*               1448               01.0918949216E+021.6436793615E+01+
*       -1.527888851E+03               0
GRID*               1449               01.2335120815E+021.5493363088E+01+
*       -1.527447687E+03               0
GRID*               1450               01.3747991036E+021.4133277274E+01+
*       -1.527007421E+03               0
GRID*               1451               01.5155749052E+021.2321741273E+01+
*       -1.526568653E+03               0
GRID*               1452               01.6553574501E+029.8615260257E+00+
*       -1.526132898E+03               0
GRID*               1453               08.0801321444E+011.7536811401E+01+
*       -1.518280123E+03               0
GRID*               1454               09.4950476664E+011.7038350364E+01+
*       -1.517810545E+03               0
GRID*               1455               01.0909203338E+021.6401677501E+01+
*       -1.517340014E+03               0
GRID*               1456               01.2321541903E+021.5460749794E+01+
*       -1.516869598E+03               0
GRID*               1457               01.3730571556E+021.4103572154E+01+
*       -1.516400098E+03               0
GRID*               1458               01.5134517149E+021.2296654146E+01+
*       -1.515932091E+03               0
GRID*               1459               01.6528513753E+029.8419331261E+00+
*       -1.515467052E+03               0
GRID*               1460               08.0780541025E+011.7497711017E+01+
*       -1.507789761E+03               0
GRID*               1461               09.4891437762E+011.7000781679E+01+
*       -1.507290965E+03               0
GRID*               1462               01.0899458052E+021.6366575028E+01+
*       -1.506791180E+03               0
GRID*               1463               01.2307963343E+021.5428113604E+01+
*       -1.506291514E+03               0
GRID*               1464               01.3713153033E+021.4073893208E+01+
*       -1.505792781E+03               0
GRID*               1465               01.5113285633E+021.2271555070E+01+
*       -1.505295532E+03               0
GRID*               1466               01.6503453363E+029.8223410054E+00+
*       -1.504801208E+03               0
GRID*               1467               08.0759761607E+011.7458572432E+01+
*       -1.497299400E+03               0
GRID*               1468               09.4832401001E+011.6963186259E+01+
*       -1.496771389E+03               0
GRID*               1469               01.0889713337E+021.6331485668E+01+
*       -1.496242350E+03               0
GRID*               1470               01.2294385115E+021.5395455356E+01+
*       -1.495713435E+03               0
GRID*               1471               01.3695735433E+021.4044239673E+01+
*       -1.495185467E+03               0
GRID*               1472               01.5092054502E+021.2246445308E+01+
*       -1.494658978E+03               0
GRID*               1473               01.6478393321E+029.8027499452E+00+
*       -1.494135365E+03               0
GRID*               1474               08.0738983165E+011.7419397086E+01+
*       -1.486809041E+03               0
GRID*               1475               09.4773366328E+011.6925566765E+01+
*       -1.486251815E+03               0
GRID*               1476               01.0879969180E+021.6296408919E+01+
*       -1.485693524E+03               0
GRID*               1477               01.2280807209E+021.5362775915E+01+
*       -1.485135361E+03               0
GRID*               1478               01.3678318732E+021.4014610808E+01+
*       -1.484578158E+03               0
GRID*               1479               01.5070823761E+021.2221326098E+01+
*       -1.484022427E+03               0
GRID*               1480               01.6453333620E+029.7831602066E+00+
*       -1.483469525E+03               0
GRID*               1481               08.0718205696E+011.7380186402E+01+
*       -1.476318683E+03               0
GRID*               1482               09.4714333725E+011.6887925766E+01+
*       -1.475732243E+03               0
GRID*               1483               01.0870225569E+021.6261344300E+01+
*       -1.475144702E+03               0
GRID*               1484               01.2267229619E+021.5330076162E+01+
*       -1.474557291E+03               0
GRID*               1485               01.3660902910E+021.3985005893E+01+
*       -1.473970854E+03               0
GRID*               1486               01.5049593415E+021.2196198655E+01+
*       -1.473385880E+03               0
GRID*               1487               01.6428274256E+029.7635720340E+00+
*       -1.472803687E+03               0
GRID*               1488               08.0697429213E+011.7340941788E+01+
*       -1.465828327E+03               0
GRID*               1489               09.4655303192E+011.6850265745E+01+
*       -1.465212675E+03               0
GRID*               1490               01.0860482498E+021.6226291354E+01+
*       -1.464595884E+03               0
GRID*               1491               01.2253652345E+021.5297356986E+01+
*       -1.463979226E+03               0
GRID*               1492               01.3643487947E+021.3955424234E+01+
*       -1.463363553E+03               0
GRID*               1493               01.5028363472E+021.2171064175E+01+
*       -1.462749336E+03               0
GRID*               1494               01.6403215225E+029.7439856572E+00+
*       -1.462137851E+03               0
GRID*               1495               08.0676653733E+011.7301664635E+01+
*       -1.455337973E+03               0
GRID*               1496               09.4596274740E+011.6812589107E+01+
*       -1.454693110E+03               0
GRID*               1497               01.0850739959E+021.6191249644E+01+
*       -1.454047069E+03               0
GRID*               1498               01.2240075388E+021.5264619277E+01+
*       -1.453401166E+03               0
GRID*               1499               01.3626073827E+021.3925865158E+01+
*       -1.452756257E+03               0
GRID*               1500               01.5007133944E+021.2145923837E+01+
*       -1.452112796E+03               0
GRID*               1501               01.6378156525E+029.7244012930E+00+
*       -1.451472016E+03               0
GRID*               1502               08.0655879278E+011.7262356322E+01+
*       -1.444847620E+03               0
GRID*               1503               09.4537248388E+011.6774898181E+01+
*       -1.444173547E+03               0
GRID*               1504               01.0840997947E+021.6156218751E+01+
*       -1.443498259E+03               0
GRID*               1505               01.2226498751E+021.5231863924E+01+
*       -1.442823110E+03               0
GRID*               1506               01.3608660535E+021.3896328018E+01+
*       -1.442148965E+03               0
GRID*               1507               01.4985904838E+021.2120778803E+01+
*       -1.441476259E+03               0
GRID*               1508               01.6353098152E+029.7048191461E+00+
*       -1.440806184E+03               0
GRID*               1509               08.0635105872E+011.7223018212E+01+
*       -1.434357269E+03               0
GRID*               1510               09.4478224157E+011.6737195225E+01+
*       -1.433653987E+03               0
GRID*               1511               01.0831256458E+021.6121198276E+01+
*       -1.432949452E+03               0
GRID*               1512               01.2212922438E+021.5199091812E+01+
*       -1.432245059E+03               0
GRID*               1513               01.3591248056E+021.3866812188E+01+
*       -1.431541677E+03               0
GRID*               1514               01.4964676166E+021.2095630220E+01+
*       -1.430839726E+03               0
GRID*               1515               01.6328040106E+029.6852394109E+00+
*       -1.430140353E+03               0
GRID*               1516               08.0614333541E+011.7183651654E+01+
*       -1.423866919E+03               0
GRID*               1517               09.4419202071E+011.6699482432E+01+
*       -1.423134430E+03               0
GRID*               1518               01.0821515488E+021.6086187836E+01+
*       -1.422400649E+03               0
GRID*               1519               01.2199346454E+021.5166303817E+01+
*       -1.421667013E+03               0
GRID*               1520               01.3573836377E+021.3837317065E+01+
*       -1.420934393E+03               0
GRID*               1521               01.4943447938E+021.2070479218E+01+
*       -1.420203196E+03               0
GRID*               1522               01.6302982385E+029.6656622712E+00+
*       -1.419474524E+03               0
GRID*               1523               08.0593562309E+011.7144257987E+01+
*       -1.413376571E+03               0
GRID*               1524               09.4360182156E+011.6661761931E+01+
*       -1.412614876E+03               0
GRID*               1525               01.0811775032E+021.6051187064E+01+
*       -1.411851849E+03               0
GRID*               1526               01.2185770805E+021.5133500807E+01+
*       -1.411088971E+03               0
GRID*               1527               01.3556425483E+021.3807842068E+01+
*       -1.410327114E+03               0
GRID*               1528               01.4922220164E+021.2045326914E+01+
*       -1.409566669E+03               0
GRID*               1529               01.6277924985E+029.6460879017E+00+
*       -1.408808697E+03               0
GRID*               1530               08.0572792202E+011.7104838533E+01+
*       -1.402886224E+03               0
GRID*               1531               09.4301164435E+011.6624035794E+01+
*       -1.402095325E+03               0
GRID*               1532               01.0802035087E+021.6016195606E+01+
*       -1.401303054E+03               0
GRID*               1533               01.2172195497E+021.5100683639E+01+
*       -1.400510934E+03               0
GRID*               1534               01.3539015363E+021.3778386637E+01+
*       -1.399719839E+03               0
GRID*               1535               01.4900992855E+021.2020174412E+01+
*       -1.398930146E+03               0
GRID*               1536               01.6252867907E+029.6265164683E+00+
*       -1.398142872E+03               0
GRID*               1537               08.0552023245E+011.7065394607E+01+
*       -1.392395879E+03               0
GRID*               1538               09.4242148935E+011.6586306035E+01+
*       -1.391575776E+03               0
GRID*               1539               01.0792295650E+021.5981213123E+01+
*       -1.390754262E+03               0
GRID*               1540               01.2158620536E+021.5067853159E+01+
*       -1.389932901E+03               0
GRID*               1541               01.3521606004E+021.3748950233E+01+
*       -1.389112568E+03               0
GRID*               1542               01.4879766022E+021.1995022800E+01+
*       -1.388293627E+03               0
GRID*               1543               01.6227811147E+029.6069481286E+00+
*       -1.387477048E+03               0
GRID*               1544               08.0531255464E+011.7025927507E+01+
*       -1.381905536E+03               0
GRID*               1545               09.4183135680E+011.6548574618E+01+
*       -1.381056231E+03               0
GRID*               1546               01.0782556717E+021.5946239289E+01+
*       -1.380205474E+03               0
GRID*               1547               01.2145045927E+021.5035010199E+01+
*       -1.379354873E+03               0
GRID*               1548               01.3504197393E+021.3719532337E+01+
*       -1.378505301E+03               0
GRID*               1549               01.4858539674E+021.1969873155E+01+
*       -1.377657110E+03               0
GRID*               1550               01.6202754705E+029.5873830326E+00+
*       -1.376811227E+03               0
GRID*               1551               08.0510488883E+011.6986438525E+01+
*       -1.371415194E+03               0
GRID*               1552               09.4124124694E+011.6510843458E+01+
*       -1.370536688E+03               0
GRID*               1553               01.0772818284E+021.5911273789E+01+
*       -1.369656690E+03               0
GRID*               1554               01.2131471678E+021.5002155578E+01+
*       -1.368776850E+03               0
GRID*               1555               01.3486789521E+021.3690132450E+01+
*       -1.367898039E+03               0
GRID*               1556               01.4837313823E+021.1944726542E+01+
*       -1.367020597E+03               0
GRID*               1557               01.6177698579E+029.5678213230E+00+
*       -1.366145407E+03               0
GRID*               1558               08.0489723527E+011.6946928937E+01+
*       -1.360924854E+03               0
GRID*               1559               09.4065116002E+011.6473114423E+01+
*       -1.360017148E+03               0
GRID*               1560               01.0763080349E+021.5876316318E+01+
*       -1.359107910E+03               0
GRID*               1561               01.2117897795E+021.4969290104E+01+
*       -1.358198831E+03               0
GRID*               1562               01.3469382374E+021.3660750092E+01+
*       -1.357290780E+03               0
GRID*               1563               01.4816088478E+021.1919584012E+01+
*       -1.356384088E+03               0
GRID*               1564               01.6152642767E+029.5482631354E+00+
*       -1.355479589E+03               0
GRID*               1565               08.0468959418E+011.6907400012E+01+
*       -1.350434515E+03               0
GRID*               1566               09.4006109626E+011.6435389341E+01+
*       -1.349497611E+03               0
GRID*               1567               01.0753342907E+021.5841366583E+01+
*       -1.348559134E+03               0
GRID*               1568               01.2104324284E+021.4936414567E+01+
*       -1.347620817E+03               0
GRID*               1569               01.3451975944E+021.3631384802E+01+
*       -1.346683526E+03               0
GRID*               1570               01.4794863651E+021.1894446607E+01+
*       -1.345747582E+03               0
GRID*               1571               01.6127587269E+029.5287085993E+00+
*       -1.344813773E+03               0
GRID*               1572               08.0448196582E+011.6867853008E+01+
*       -1.339944178E+03               0
GRID*               1573               09.3947105589E+011.6397669997E+01+
*       -1.338978076E+03               0
GRID*               1574               01.0743605958E+021.5806424299E+01+
*       -1.338010362E+03               0
GRID*               1575               01.2090751152E+021.4903529746E+01+
*       -1.337042807E+03               0
GRID*               1576               01.3434570218E+021.3602036135E+01+
*       -1.336076277E+03               0
GRID*               1577               01.4773639351E+021.1869315356E+01+
*       -1.335111079E+03               0
GRID*               1578               01.6102532082E+029.5091578379E+00+
*       -1.334147959E+03               0
GRID*               1579               08.0427435042E+011.6828289173E+01+
*       -1.329453842E+03               0
GRID*               1580               09.3888103914E+011.6359958140E+01+
*       -1.328458545E+03               0
GRID*               1581               01.0733869496E+021.5771489190E+01+
*       -1.327461593E+03               0
GRID*               1582               01.2077178404E+021.4870636403E+01+
*       -1.326464802E+03               0
GRID*               1583               01.3417165186E+021.3572703668E+01+
*       -1.325469031E+03               0
GRID*               1584               01.4752415589E+021.1844191279E+01+
*       -1.324474579E+03               0
GRID*               1585               01.6077477205E+029.4896109689E+00+
*       -1.323482147E+03               0
GRID*               1586               08.0406674819E+011.6788709744E+01+
*       -1.318963508E+03               0
GRID*               1587               09.3829104622E+011.6322255485E+01+
*       -1.317939016E+03               0
GRID*               1588               01.0724133518E+021.5736560989E+01+
*       -1.316912828E+03               0
GRID*               1589               01.2063606047E+021.4837735285E+01+
*       -1.315886802E+03               0
GRID*               1590               01.3399760839E+021.3543386991E+01+
*       -1.314861790E+03               0
GRID*               1591               01.4731192375E+021.1819075386E+01+
*       -1.313838083E+03               0
GRID*               1592               01.6052422637E+029.4700681048E+00+
*       -1.312816336E+03               0
GRID*               1593               08.0385915937E+011.6749115951E+01+
*       -1.308473176E+03               0
GRID*               1594               09.3770107731E+011.6284563715E+01+
*       -1.307419490E+03               0
GRID*               1595               01.0714398023E+021.5701639436E+01+
*       -1.306364067E+03               0
GRID*               1596               01.2050034086E+021.4804827128E+01+
*       -1.305308806E+03               0
GRID*               1597               01.3382357166E+021.3514085715E+01+
*       -1.304254553E+03               0
GRID*               1598               01.4709969719E+021.1793968679E+01+
*       -1.303201590E+03               0
GRID*               1599               01.6027368376E+029.4505293534E+00+
*       -1.302150528E+03               0
GRID*               1600               08.0365158413E+011.6709509015E+01+
*       -1.297982845E+03               0
GRID*               1601               09.3711113257E+011.6246884483E+01+
*       -1.296899967E+03               0
GRID*               1602               01.0704663004E+021.5666724278E+01+
*       -1.295815310E+03               0
GRID*               1603               01.2036462525E+021.4771912649E+01+
*       -1.294730814E+03               0
GRID*               1604               01.3364954157E+021.3484799464E+01+
*       -1.293647320E+03               0
GRID*               1605               01.4688747629E+021.1768872149E+01+
*       -1.292565101E+03               0
GRID*               1606               01.6002314419E+029.4309948180E+00+
*       -1.291484721E+03               0
GRID*               1607               08.0344402268E+011.6669890146E+01+
*       -1.287492516E+03               0
GRID*               1608               09.3652121213E+011.6209219414E+01+
*       -1.286380447E+03               0
GRID*               1609               01.0694928460E+021.5631815270E+01+
*       -1.285266557E+03               0
GRID*               1610               01.2022891370E+021.4738992554E+01+
*       -1.284152827E+03               0
GRID*               1611               01.3347551800E+021.3455527882E+01+
*       -1.283040091E+03               0
GRID*               1612               01.4667526115E+021.1743786782E+01+
*       -1.281928615E+03               0
GRID*               1613               01.5977260765E+029.4114645979E+00+
*       -1.280818915E+03               0
GRID*               1614               08.0323647519E+011.6630260549E+01+
*       -1.277002188E+03               0
GRID*               1615               09.3593131610E+011.6171570111E+01+
*       -1.275860929E+03               0
GRID*               1616               01.0685194384E+021.5596912172E+01+
*       -1.274717808E+03               0
GRID*               1617               01.2009320625E+021.4706067530E+01+
*       -1.273574844E+03               0
GRID*               1618               01.3330150085E+021.3426270628E+01+
*       -1.272432866E+03               0
GRID*               1619               01.4646305185E+021.1718713556E+01+
*       -1.271292132E+03               0
GRID*               1620               01.5952207411E+029.3919387896E+00+
*       -1.270153112E+03               0
GRID*               1621               08.0302894181E+011.6590621418E+01+
*       -1.266511861E+03               0
GRID*               1622               09.3534144460E+011.6133938152E+01+
*       -1.265341414E+03               0
GRID*               1623               01.0675460774E+021.5562014750E+01+
*       -1.264169063E+03               0
GRID*               1624               01.1995750293E+021.4673138253E+01+
*       -1.262996866E+03               0
GRID*               1625               01.3312749003E+021.3397027375E+01+
*       -1.261825646E+03               0
GRID*               1626               01.4625084847E+021.1693653441E+01+
*       -1.260655652E+03               0
GRID*               1627               01.5927154353E+029.3724174875E+00+
*       -1.259487311E+03               0
GRID*               1628               08.0282142275E+011.6550973942E+01+
*       -1.256021537E+03               0
GRID*               1629               09.3475009347E+011.6096697319E+01+
*       -1.254821902E+03               0
GRID*               1630               01.0665727626E+021.5527122775E+01+
*       -1.253620321E+03               0
GRID*               1631               01.1982180380E+021.4640205381E+01+
*       -1.252418893E+03               0
GRID*               1632               01.3295348541E+021.3367797813E+01+
*       -1.251218430E+03               0
GRID*               1633               01.4603865107E+021.1668607404E+01+
*       -1.250019175E+03               0
GRID*               1634               01.5902101582E+029.3529007887E+00+
*       -1.248821511E+03               0
GRID*               1635               08.0261391821E+011.6511319300E+01+
*       -1.245531213E+03               0
GRID*               1636               09.3415841433E+011.6060986388E+01+
*       -1.244302388E+03               0
GRID*               1637               01.0655994935E+021.5492236025E+01+
*       -1.243071584E+03               0
GRID*               1638               01.1968610889E+021.4607269557E+01+
*       -1.241840924E+03               0
GRID*               1639               01.3277948692E+021.3338581646E+01+
*       -1.240611218E+03               0
GRID*               1640               01.4582645972E+021.1643576406E+01+
*       -1.239382702E+03               0
GRID*               1641               01.5877049082E+029.3333888079E+00+
*       -1.238155713E+03               0
GRID*               1642               08.0240642838E+011.6471658666E+01+
*       -1.235040892E+03               0
GRID*               1643               09.3356719987E+011.6026718522E+01+
*       -1.233782872E+03               0
GRID*               1644               01.0646262701E+021.5457354278E+01+
*       -1.232522850E+03               0
GRID*               1645               01.1955041826E+021.4574331410E+01+
*       -1.231262959E+03               0
GRID*               1646               01.3260549446E+021.3309378588E+01+
*       -1.230004010E+03               0
GRID*               1647               01.4561427452E+021.1618561396E+01+
*       -1.228746232E+03               0
GRID*               1648               01.5851996855E+029.3138816168E+00+
*       -1.227489917E+03               0
GRID*               1649               08.0219895352E+011.6431993206E+01+
*       -1.224550572E+03               0
GRID*               1650               09.3297637298E+011.5993676297E+01+
*       -1.223263354E+03               0
GRID*               1651               01.0636530920E+021.5422477320E+01+
*       -1.221974120E+03               0
GRID*               1652               01.1941473197E+021.4541391551E+01+
*       -1.220684999E+03               0
GRID*               1653               01.3243150799E+021.3280188369E+01+
*       -1.219396807E+03               0
GRID*               1654               01.4540209561E+021.1593563308E+01+
*       -1.218109766E+03               0
GRID*               1655               01.5826944912E+029.2943792627E+00+
*       -1.216824122E+03               0
GRID*               1656               08.0199149384E+011.6392324080E+01+
*       -1.214060253E+03               0
GRID*               1657               09.3238585318E+011.5961610691E+01+
*       -1.212743835E+03               0
GRID*               1658               01.0626799590E+021.5387604939E+01+
*       -1.211425394E+03               0
GRID*               1659               01.1927905009E+021.4508450578E+01+
*       -1.210107044E+03               0
GRID*               1660               01.3225752745E+021.3251010730E+01+
*       -1.208789608E+03               0
GRID*               1661               01.4518992315E+021.1568583077E+01+
*       -1.207473302E+03               0
GRID*               1662               01.5801893260E+029.2748818051E+00+
*       -1.206158330E+03               0
GRID*               1663               08.0178404957E+011.6352652440E+01+
*       -1.203569936E+03               0
GRID*               1664               09.3179555662E+011.5930242454E+01+
*       -1.202224317E+03               0
GRID*               1665               01.0617068709E+021.5352736926E+01+
*       -1.200876672E+03               0
GRID*               1666               01.1914337267E+021.4475509074E+01+
*       -1.199529092E+03               0
GRID*               1667               01.3208355280E+021.3221845426E+01+
*       -1.198182413E+03               0
GRID*               1668               01.4497775727E+021.1543621631E+01+
*       -1.196836842E+03               0
GRID*               1669               01.5776841900E+029.2553893067E+00+
*       -1.195492539E+03               0
GRID*               1670               08.0157662095E+011.6312979433E+01+
*       -1.193079620E+03               0
GRID*               1671               09.3120539579E+011.5899262219E+01+
*       -1.191704800E+03               0
GRID*               1672               01.0607338276E+021.5317873078E+01+
*       -1.190327954E+03               0
GRID*               1673               01.1900769978E+021.4442567607E+01+
*       -1.188951145E+03               0
GRID*               1674               01.3190958397E+021.3192692228E+01+
*       -1.187575222E+03               0
GRID*               1675               01.4476559809E+021.1518679900E+01+
*       -1.186200385E+03               0
GRID*               1676               01.5751790832E+029.2359018306E+00+
*       -1.184826750E+03               0
GRID*               1677               08.0136920818E+011.6273306201E+01+
*       -1.182589306E+03               0
GRID*               1678               09.3061527914E+011.5868329401E+01+
*       -1.181185286E+03               0
GRID*               1679               01.0597608288E+021.5283013194E+01+
*       -1.179779240E+03               0
GRID*               1680               01.1887203146E+021.4409626731E+01+
*       -1.178373203E+03               0
GRID*               1681               01.3173562092E+021.3163550919E+01+
*       -1.176968035E+03               0
GRID*               1682               01.4455344573E+021.1493758810E+01+
*       -1.175563931E+03               0
GRID*               1683               01.5726740057E+029.2164194386E+00+
*       -1.174160962E+03               0
GRID*               1684               08.0116181147E+011.6233633879E+01+
*       -1.172098994E+03               0
GRID*               1685               09.3002511040E+011.5837069821E+01+
*       -1.170665776E+03               0
GRID*               1686               01.0587878741E+021.5248157075E+01+
*       -1.169230529E+03               0
GRID*               1687               01.1873636776E+021.4376686985E+01+
*       -1.167795265E+03               0
GRID*               1688               01.3156166358E+021.3134421294E+01+
*       -1.166360852E+03               0
GRID*               1689               01.4434130030E+021.1468859286E+01+
*       -1.164927480E+03               0
GRID*               1690               01.5701689573E+029.1969421902E+00+
*       -1.163495177E+03               0
GRID*               1691               08.0095443103E+011.6193963599E+01+
*       -1.161608683E+03               0
GRID*               1692               09.2943478768E+011.5805071948E+01+
*       -1.160146272E+03               0
GRID*               1693               01.0578149634E+021.5213304527E+01+
*       -1.158681823E+03               0
GRID*               1694               01.1860070873E+021.4343748895E+01+
*       -1.157217331E+03               0
GRID*               1695               01.3138771189E+021.3105303166E+01+
*       -1.155753674E+03               0
GRID*               1696               01.4412916192E+021.1443982252E+01+
*       -1.154291032E+03               0
GRID*               1697               01.5676639380E+029.1774701433E+00+
*       -1.152829393E+03               0
GRID*               1698               08.0074706704E+011.6154296486E+01+
*       -1.151118373E+03               0
GRID*               1699               09.2884420230E+011.5771881578E+01+
*       -1.149626775E+03               0
GRID*               1700               01.0568420964E+021.5178455358E+01+
*       -1.148133120E+03               0
GRID*               1701               01.1846505442E+021.4310812973E+01+
*       -1.146639402E+03               0
GRID*               1702               01.3121376580E+021.3076196355E+01+
*       -1.145146499E+03               0
GRID*               1703               01.4391703069E+021.1419128632E+01+
*       -1.143654588E+03               0
GRID*               1704               01.5651589476E+029.1580033535E+00+
*       -1.142163610E+03               0
GRID*               1705               08.0053971969E+011.6114633659E+01+
*       -1.140628065E+03               0
GRID*               1706               09.2825337439E+011.5737000328E+01+
*       -1.139107286E+03               0
GRID*               1707               01.0558692727E+021.5143609378E+01+
*       -1.137584421E+03               0
GRID*               1708               01.1832940485E+021.4277879717E+01+
*       -1.136061477E+03               0
GRID*               1709               01.3103982524E+021.3047100698E+01+
*       -1.134539329E+03               0
GRID*               1710               01.4370490673E+021.1394299351E+01+
*       -1.133018146E+03               0
GRID*               1711               01.5626539862E+029.1385418744E+00+
*       -1.131497830E+03               0
GRID*               1712               08.0033238917E+011.6074976237E+01+
*       -1.130137759E+03               0
GRID*               1713               09.2766406763E+011.5701275310E+01+
*       -1.128587802E+03               0
GRID*               1714               01.0548964920E+021.5108766400E+01+
*       -1.127035726E+03               0
GRID*               1715               01.1819376007E+021.4244949608E+01+
*       -1.125483557E+03               0
GRID*               1716               01.3086589017E+021.3018016042E+01+
*       -1.123932163E+03               0
GRID*               1717               01.4349279016E+021.1369495331E+01+
*       -1.122381708E+03               0
GRID*               1718               01.5601490535E+029.1190857576E+00+
*       -1.120832051E+03               0
GRID*               1719               08.0012507565E+011.6035325331E+01+
*       -1.119647454E+03               0
GRID*               1720               09.2707476659E+011.5665606020E+01+
*       -1.118068323E+03               0
GRID*               1721               01.0539237540E+021.5073926239E+01+
*       -1.116487035E+03               0
GRID*               1722               01.1805812011E+021.4212023118E+01+
*       -1.114905640E+03               0
GRID*               1723               01.3069196053E+021.2988942249E+01+
*       -1.113325001E+03               0
GRID*               1724               01.4328068108E+021.1344717500E+01+
*       -1.111745273E+03               0
GRID*               1725               01.5576441496E+029.0996350528E+00+
*       -1.110166274E+03               0
GRID*               1726               07.9991777931E+011.5995682049E+01+
*       -1.109157150E+03               0
GRID*               1727               09.2648547351E+011.5629984982E+01+
*       -1.107548847E+03               0
GRID*               1728               01.0529510584E+021.5039088711E+01+
*       -1.105938348E+03               0
GRID*               1729               01.1792248501E+021.4179100703E+01+
*       -1.104327729E+03               0
GRID*               1730               01.3051803625E+021.2959879191E+01+
*       -1.102717843E+03               0
GRID*               1731               01.4306857961E+021.1319966786E+01+
*       -1.101108840E+03               0
GRID*               1732               01.5551392742E+029.0801898080E+00+
*       -1.099500499E+03               0
GRID*               1733               07.9971050032E+011.5956047496E+01+
*       -1.098666848E+03               0
GRID*               1734               09.2589619049E+011.5594404946E+01+
*       -1.097029374E+03               0
GRID*               1735               01.0519784048E+021.5004253635E+01+
*       -1.095389665E+03               0
GRID*               1736               01.1778685478E+021.4146182803E+01+
*       -1.093749821E+03               0
GRID*               1737               01.3034411730E+021.2930826752E+01+
*       -1.092110689E+03               0
GRID*               1738               01.4285648586E+021.1295244120E+01+
*       -1.090472411E+03               0
GRID*               1739               01.5526344273E+029.0607500692E+00+
*       -1.088834725E+03               0
GRID*               1740               07.9950323885E+011.5916422773E+01+
*       -1.088176548E+03               0
GRID*               1741               09.2530691950E+011.5558858904E+01+
*       -1.086509905E+03               0
GRID*               1742               01.0510057929E+021.4969420833E+01+
*       -1.084840986E+03               0
GRID*               1743               01.1765122948E+021.4113269848E+01+
*       -1.083171918E+03               0
GRID*               1744               01.3017020361E+021.2901784831E+01+
*       -1.081503540E+03               0
GRID*               1745               01.4264439995E+021.1270550438E+01+
*       -1.079835985E+03               0
GRID*               1746               01.5501296088E+029.0413158810E+00+
*       -1.078168953E+03               0
GRID*               1747               07.9929599507E+011.5876808979E+01+
*       -1.077686249E+03               0
GRID*               1748               09.2471766235E+011.5523340105E+01+
*       -1.075990440E+03               0
GRID*               1749               01.0500332224E+021.4934590126E+01+
*       -1.074292310E+03               0
GRID*               1750               01.1751560911E+021.4080362254E+01+
*       -1.072594019E+03               0
GRID*               1751               01.2999629514E+021.2872753335E+01+
*       -1.070896394E+03               0
GRID*               1752               01.4243232201E+021.1245886680E+01+
*       -1.069199562E+03               0
GRID*               1753               01.5476248186E+029.0218872861E+00+
*       -1.067503183E+03               0
GRID*               1754               07.9908876914E+011.5837207209E+01+
*       -1.067195951E+03               0
GRID*               1755               09.2412842075E+011.5487842067E+01+
*       -1.065470978E+03               0
GRID*               1756               01.0490606928E+021.4899761338E+01+
*       -1.063743638E+03               0
GRID*               1757               01.1737999371E+021.4047460422E+01+
*       -1.062016124E+03               0
GRID*               1758               01.2982239185E+021.2843732185E+01+
*       -1.060289252E+03               0
GRID*               1759               01.4222025215E+021.1221253793E+01+
*       -1.058563141E+03               0
GRID*               1760               01.5451200566E+029.0024643261E+00+
*       -1.056837414E+03               0
GRID*               1761               07.9888156123E+011.5797618557E+01+
*       -1.056705655E+03               0
GRID*               1762               09.2353919627E+011.5452358583E+01+
*       -1.054951519E+03               0
GRID*               1763               01.0480882039E+021.4864934294E+01+
*       -1.053194971E+03               0
GRID*               1764               01.1724438330E+021.4014564742E+01+
*       -1.051438233E+03               0
GRID*               1765               01.2964849368E+021.2814721316E+01+
*       -1.049682115E+03               0
GRID*               1766               01.4200819050E+021.1196652728E+01+
*       -1.047926724E+03               0
GRID*               1767               01.5426153227E+028.9830470408E+00+
*       -1.046171647E+03               0
GRID*               1768               07.9867437149E+011.5758044114E+01+
*       -1.046215361E+03               0
GRID*               1769               09.2294999040E+011.5416883728E+01+
*       -1.044432064E+03               0
GRID*               1770               01.0471157552E+021.4830108821E+01+
*       -1.042646307E+03               0
GRID*               1771               01.1710877790E+021.3981675588E+01+
*       -1.040860347E+03               0
GRID*               1772               01.2947460059E+021.2785720672E+01+
*       -1.039074981E+03               0
GRID*               1773               01.4179613718E+021.1172084448E+01+
*       -1.037290310E+03               0
GRID*               1774               01.5401106168E+028.9636354688E+00+
*       -1.035505882E+03               0
GRID*               1775               07.9846720008E+011.5718484969E+01+
*       -1.035725068E+03               0
GRID*               1776               09.2236080449E+011.5381411862E+01+
*       -1.033912611E+03               0
GRID*               1777               01.0461433464E+021.4795284748E+01+
*       -1.032097646E+03               0
GRID*               1778               01.1697317754E+021.3948793324E+01+
*       -1.030282465E+03               0
GRID*               1779               01.2930071254E+021.2756730209E+01+
*       -1.028467852E+03               0
GRID*               1780               01.4158409231E+021.1147549922E+01+
*       -1.026653899E+03               0
GRID*               1781               01.5376059388E+028.9442296474E+00+
*       -1.024840118E+03               0
GRID*               1782               07.9826004716E+011.5678942210E+01+
*       -1.025234776E+03               0
GRID*               1783               09.2177163981E+011.5345937634E+01+
*       -1.023393162E+03               0
GRID*               1784               01.0451709771E+021.4760461903E+01+
*       -1.021548990E+03               0
GRID*               1785               01.1683758223E+021.3915918301E+01+
*       -1.019704587E+03               0
GRID*               1786               01.2912682948E+021.2727749899E+01+
*       -1.017860726E+03               0
GRID*               1787               01.4137205605E+021.1123050128E+01+
*       -1.016017490E+03               0
GRID*               1788               01.5351012886E+028.9248296125E+00+
*       -1.014174356E+03               0
GRID*               1789               07.9805291288E+011.5639416925E+01+
*       -1.014744486E+03               0
GRID*               1790               09.2118249755E+011.5310455983E+01+
*       -1.012873716E+03               0
GRID*               1791               01.0441986469E+021.4725640117E+01+
*       -1.011000338E+03               0
GRID*               1792               01.1670199199E+021.3883050854E+01+
*       -1.009126714E+03               0
GRID*               1793               01.2895295139E+021.2698779720E+01+
*       -1.007253605E+03               0
GRID*               1794               01.4116002850E+021.1098586058E+01+
*       -1.005381084E+03               0
GRID*               1795               01.5325966662E+028.9054353992E+00+
*       -1.003508596E+03               0
GRID*               1796               07.9784579738E+011.5599910200E+01+
*       -1.004254197E+03               0
GRID*               1797               09.2059337879E+011.5274962137E+01+
*       -1.002354273E+03               0
GRID*               1798               01.0432263554E+021.4690819221E+01+
*       -1.000451689E+03               0
GRID*               1799               01.1656640684E+021.3850191311E+01+
*       -9.985488441E+02               0
GRID*               1800               01.2877907821E+021.2669819669E+01+
*       -9.966464872E+02               0
GRID*               1801               01.4094800982E+021.1074158715E+01+
*       -9.947446818E+02               0
GRID*               1802               01.5300920714E+028.8860470410E+00+
*       -9.928428368E+02               0
GRID*               1803               07.9763870082E+011.5560423121E+01+
*       -9.937639099E+02               0
GRID*               1804               09.2000428454E+011.5239451614E+01+
*       -9.918348331E+02               0
GRID*               1805               01.0422541022E+021.4655999049E+01+
*       -9.899030441E+02               0
GRID*               1806               01.1643082679E+021.3817339982E+01+
*       -9.879709788E+02               0
GRID*               1807               01.2860520991E+021.2640869750E+01+
*       -9.860393736E+02               0
GRID*               1808               01.4073589745E+021.1049902937E+01+
*       -9.841082878E+02               0
GRID*               1809               01.5275875041E+028.8666645706E+00+
*       -9.821770796E+02               0
GRID*               1810               07.9743162333E+011.5520956775E+01+
*       -9.832736241E+02               0
GRID*               1811               09.1941521573E+011.5203920215E+01+
*       -9.813153960E+02               0
GRID*               1812               01.0412818869E+021.4621179434E+01+
*       -9.793544031E+02               0
GRID*               1813               01.1629525186E+021.3784497168E+01+
*       -9.773931176E+02               0
GRID*               1814               01.2843134646E+021.2611929982E+01+
*       -9.754322639E+02               0
GRID*               1815               01.4052380325E+021.1025896842E+01+
*       -9.734719029E+02               0
GRID*               1816               01.5250829642E+028.8472880198E+00+
*       -9.715113240E+02               0
GRID*               1817               07.9722456507E+011.5481512249E+01+
*       -9.727833397E+02               0
GRID*               1818               09.1882617322E+011.5168364028E+01+
*       -9.707959617E+02               0
GRID*               1819               01.0403097091E+021.4586360211E+01+
*       -9.688057658E+02               0
GRID*               1820               01.1615968206E+021.3751663158E+01+
*       -9.668152606E+02               0
GRID*               1821               01.2825748782E+021.2583000395E+01+
*       -9.648251582E+02               0
GRID*               1822               01.4031172521E+021.1002108343E+01+
*       -9.628355265E+02               0
GRID*               1823               01.5225784518E+028.8279174191E+00+
*       -9.608455700E+02               0
GRID*               1824               07.9701752616E+011.5442090632E+01+
*       -9.622930568E+02               0
GRID*               1825               09.1823715778E+011.5132779419E+01+
*       -9.602765302E+02               0
GRID*               1826               01.0393375683E+021.4551541217E+01+
*       -9.582571324E+02               0
GRID*               1827               01.1602411738E+021.3718838228E+01+
*       -9.562374077E+02               0
GRID*               1828               01.2808363396E+021.2554081035E+01+
*       -9.542180564E+02               0
GRID*               1829               01.4009966112E+021.0978507320E+01+
*       -9.521991579E+02               0
GRID*               1830               01.5200739665E+028.8085527984E+00+
*       -9.501798175E+02               0
GRID*               1831               07.9681050674E+011.5402693015E+01+
*       -9.518027753E+02               0
GRID*               1832               09.1764817013E+011.5097163030E+01+
*       -9.497571016E+02               0
GRID*               1833               01.0383654641E+021.4516722288E+01+
*       -9.477085027E+02               0
GRID*               1834               01.1588855786E+021.3686022641E+01+
*       -9.456595588E+02               0
GRID*               1835               01.2790978486E+021.2525171959E+01+
*       -9.436109584E+02               0
GRID*               1836               01.3988760888E+021.0955065483E+01+
*       -9.415627965E+02               0
GRID*               1837               01.5175695085E+028.7891941864E+00+
*       -9.395140667E+02               0
GRID*               1838               07.9660350695E+011.5363320488E+01+
*       -9.413124952E+02               0
GRID*               1839               09.1705921093E+011.5061511777E+01+
*       -9.392376757E+02               0
GRID*               1840               01.0373933960E+021.4481903263E+01+
*       -9.371598768E+02               0
GRID*               1841               01.1575300348E+021.3653216650E+01+
*       -9.350817141E+02               0
GRID*               1842               01.2773594047E+021.2496273235E+01+
*       -9.330038644E+02               0
GRID*               1843               01.3967556653E+021.0931756302E+01+
*       -9.309264416E+02               0
GRID*               1844               01.5150650775E+028.7698416113E+00+
*       -9.288483174E+02               0
GRID*               1845               07.9639652692E+011.5323974148E+01+
*       -9.308222165E+02               0
GRID*               1846               09.1647028078E+011.5025822842E+01+
*       -9.287182525E+02               0
GRID*               1847               01.0364213637E+021.4447083981E+01+
*       -9.266112547E+02               0
GRID*               1848               01.1561745426E+021.3620420497E+01+
*       -9.245038734E+02               0
GRID*               1849               01.2756210077E+021.2467384949E+01+
*       -9.223967742E+02               0
GRID*               1850               01.3946353221E+021.0908554930E+01+
*       -9.202900928E+02               0
GRID*               1851               01.5125606735E+028.7504951003E+00+
*       -9.181825696E+02               0
GRID*               1852               07.9618956677E+011.5284655093E+01+
*       -9.203319393E+02               0
GRID*               1853               09.1588138020E+011.4990093666E+01+
*       -9.181988321E+02               0
GRID*               1854               01.0354493665E+021.4412264282E+01+
*       -9.160626363E+02               0
GRID*               1855               01.1548191020E+021.3587634411E+01+
*       -9.139260367E+02               0
GRID*               1856               01.2738826574E+021.2438507197E+01+
*       -9.117896878E+02               0
GRID*               1857               01.3925150420E+021.0885438143E+01+
*       -9.096537495E+02               0
GRID*               1858               01.5100562963E+028.7311546799E+00+
*       -9.075168234E+02               0
GRID*               1859               07.9598262663E+011.5245364427E+01+
*       -9.098416634E+02               0
GRID*               1860               09.1529250968E+011.4954321951E+01+
*       -9.076794142E+02               0
GRID*               1861               01.0344774041E+021.4377444008E+01+
*       -9.055140217E+02               0
GRID*               1862               01.1534637130E+021.3554858609E+01+
*       -9.033482040E+02               0
GRID*               1863               01.2721443534E+021.2409640092E+01+
*       -9.011826053E+02               0
GRID*               1864               01.3903948086E+021.0862384266E+01+
*       -8.990174112E+02               0
GRID*               1865               01.5075519460E+028.7118203758E+00+
*       -8.968510787E+02               0
GRID*               1866               07.9577570662E+011.5206103256E+01+
*       -8.993513890E+02               0
GRID*               1867               09.1470366965E+011.4918505646E+01+
*       -8.971599990E+02               0
GRID*               1868               01.0335054760E+021.4342623002E+01+
*       -8.949654108E+02               0
GRID*               1869               01.1521083756E+021.3522093299E+01+
*       -8.927703754E+02               0
GRID*               1870               01.2704060957E+021.2380783761E+01+
*       -8.905755266E+02               0
GRID*               1871               01.3882746069E+021.0839373111E+01+
*       -8.883810775E+02               0
GRID*               1872               01.5050476224E+028.6924922130E+00+
*       -8.861853355E+02               0
GRID*               1873               07.9556880686E+011.5166872695E+01+
*       -8.888611160E+02               0
GRID*               1874               09.1411486049E+011.4882642948E+01+
*       -8.866405864E+02               0
GRID*               1875               01.0325335816E+021.4307801108E+01+
*       -8.844168036E+02               0
GRID*               1876               01.1507530899E+021.3489338677E+01+
*       -8.821925507E+02               0
GRID*               1877               01.2686678838E+021.2351938343E+01+
*       -8.799684516E+02               0
GRID*               1878               01.3861544227E+021.0816385918E+01+
*       -8.777447480E+02               0
GRID*               1879               01.5025433253E+028.6731702159E+00+
*       -8.755195939E+02               0
GRID*               1880               07.9536192746E+011.5127673862E+01+
*       -8.783708443E+02               0
GRID*               1881               09.1352608253E+011.4846732291E+01+
*       -8.761211764E+02               0
GRID*               1882               01.0315617205E+021.4272978170E+01+
*       -8.738682001E+02               0
GRID*               1883               01.1493978557E+021.3456594928E+01+
*       -8.716147300E+02               0
GRID*               1884               01.2669297177E+021.2323103996E+01+
*       -8.693613804E+02               0
GRID*               1885               01.3840342432E+021.0793405294E+01+
*       -8.671084223E+02               0
GRID*               1886               01.5000390548E+028.6538544084E+00+
*       -8.648538537E+02               0
GRID*               1887               07.9515506854E+011.5088507886E+01+
*       -8.678805740E+02               0
GRID*               1888               09.1293733605E+011.4810772344E+01+
*       -8.656017689E+02               0
GRID*               1889               01.0305898921E+021.4238154037E+01+
*       -8.633196003E+02               0
GRID*               1890               01.1480426731E+021.3423862226E+01+
*       -8.610369132E+02               0
GRID*               1891               01.2651915972E+021.2294280893E+01+
*       -8.587543129E+02               0
GRID*               1892               01.3819140561E+021.0770415152E+01+
*       -8.564721000E+02               0
GRID*               1893               01.4975348107E+028.6345448134E+00+
*       -8.541881151E+02               0
GRID*               1894               07.9494823021E+011.5049375901E+01+
*       -8.573903051E+02               0
GRID*               1895               09.1234862131E+011.4774762002E+01+
*       -8.550823640E+02               0
GRID*               1896               01.0296180958E+021.4203328555E+01+
*       -8.527710042E+02               0
GRID*               1897               01.1466875419E+021.3391140734E+01+
*       -8.504591004E+02               0
GRID*               1898               01.2634535220E+021.2265469222E+01+
*       -8.481472491E+02               0
GRID*               1899               01.3797938505E+021.0747400662E+01+
*       -8.458357808E+02               0
GRID*               1900               01.4950305930E+028.6152414536E+00+
*       -8.435223779E+02               0
GRID*               1901               07.9474141257E+011.5010279053E+01+
*       -8.469000376E+02               0
GRID*               1902               09.1175993850E+011.4738700383E+01+
*       -8.445629616E+02               0
GRID*               1903               01.0286463312E+021.4168501576E+01+
*       -8.422224118E+02               0
GRID*               1904               01.1453324622E+021.3358430606E+01+
*       -8.398812914E+02               0
GRID*               1905               01.2617154920E+021.2236669188E+01+
*       -8.375401891E+02               0
GRID*               1906               01.3776736160E+021.0724348194E+01+
*       -8.351994643E+02               0
GRID*               1907               01.4925264015E+028.5959443510E+00+
*       -8.328566421E+02               0
GRID*               1908               07.9453461572E+011.4971218497E+01+
*       -8.364097714E+02               0
GRID*               1909               09.1117128778E+011.4702586816E+01+
*       -8.340435616E+02               0
GRID*               1910               01.0276745977E+021.4133672950E+01+
*       -8.316738230E+02               0
GRID*               1911               01.1439774338E+021.3325731985E+01+
*       -8.293034863E+02               0
GRID*               1912               01.2599775071E+021.2207881016E+01+
*       -8.269331327E+02               0
GRID*               1913               01.3755533436E+021.0701245266E+01+
*       -8.245631503E+02               0
GRID*               1914               01.4900222361E+028.5766535269E+00+
*       -8.221909079E+02               0
GRID*               1915               07.9432783977E+011.4932195402E+01+
*       -8.259195066E+02               0
GRID*               1916               09.1058266928E+011.4666420845E+01+
*       -8.235241642E+02               0
GRID*               1917               01.0267028948E+021.4098842531E+01+
*       -8.211252379E+02               0
GRID*               1918               01.1426224566E+021.3293045002E+01+
*       -8.187256851E+02               0
GRID*               1919               01.2582395672E+021.2179104948E+01+
*       -8.163260799E+02               0
GRID*               1920               01.3734330246E+021.0678080499E+01+
*       -8.139268386E+02               0
GRID*               1921               01.4875180967E+028.5573690024E+00+
*       -8.115251751E+02               0
GRID*               1922               07.9412108481E+011.4893210946E+01+
*       -8.154292431E+02               0
GRID*               1923               09.0999408309E+011.4630202212E+01+
*       -8.130047692E+02               0
GRID*               1924               01.0257312217E+021.4064010173E+01+
*       -8.105766564E+02               0
GRID*               1925               01.1412675306E+021.3260369781E+01+
*       -8.081478877E+02               0
GRID*               1926               01.2565016720E+021.2150341243E+01+
*       -8.057190308E+02               0
GRID*               1927               01.3713126515E+021.0654843565E+01+
*       -8.032905288E+02               0
GRID*               1928               01.4850139834E+028.5380907978E+00+
*       -8.008594437E+02               0
GRID*               1929               07.9391435092E+011.4854266328E+01+
*       -8.049389810E+02               0
GRID*               1930               09.0940552925E+011.4593930859E+01+
*       -8.024853766E+02               0
GRID*               1931               01.0247595780E+021.4029175736E+01+
*       -8.000280785E+02               0
GRID*               1932               01.1399126555E+021.3227706433E+01+
*       -7.975700942E+02               0
GRID*               1933               01.2547638217E+021.2121590182E+01+
*       -7.951119853E+02               0
GRID*               1934               01.3691922175E+021.0631525143E+01+
*       -7.926542208E+02               0
GRID*               1935               01.4825098958E+028.5188189332E+00+
*       -7.901937137E+02               0
GRID*               1936               07.9370763820E+011.4815362758E+01+
*       -7.944487201E+02               0
GRID*               1937               09.0881700780E+011.4557606918E+01+
*       -7.919659864E+02               0
GRID*               1938               01.0237879629E+021.3994339079E+01+
*       -7.894795042E+02               0
GRID*               1939               01.1385578313E+021.3195055062E+01+
*       -7.869923044E+02               0
GRID*               1940               01.2530260160E+021.2092852067E+01+
*       -7.845049433E+02               0
GRID*               1941               01.3670717165E+021.0608116878E+01+
*       -7.820179143E+02               0
GRID*               1942               01.4800058340E+028.4995534279E+00+
*       -7.795279851E+02               0
GRID*               1943               07.9350094673E+011.4776501469E+01+
*       -7.839584606E+02               0
GRID*               1944               09.0822851873E+011.4521230707E+01+
*       -7.814465987E+02               0
GRID*               1945               01.0228163760E+021.3959500063E+01+
*       -7.789309335E+02               0
GRID*               1946               01.1372030578E+021.3162415761E+01+
*       -7.764145184E+02               0
GRID*               1947               01.2512882550E+021.2064127221E+01+
*       -7.738979049E+02               0
GRID*               1948               01.3649511432E+021.0584611334E+01+
*       -7.713816091E+02               0
GRID*               1949               01.4775017979E+028.4802943009E+00+
*       -7.688622579E+02               0
GRID*               1950               07.9329427659E+011.4737683712E+01+
*       -7.734682024E+02               0
GRID*               1951               09.0764006198E+011.4484802725E+01+
*       -7.709272134E+02               0
GRID*               1952               01.0218448165E+021.3924658554E+01+
*       -7.683823663E+02               0
GRID*               1953               01.1358483348E+021.3129788613E+01+
*       -7.658367361E+02               0
GRID*               1954               01.2495505386E+021.2035415990E+01+
*       -7.632908700E+02               0
GRID*               1955               01.3628304929E+021.0561001957E+01+
*       -7.607453052E+02               0
GRID*               1956               01.4749977874E+028.4610415710E+00+
*       -7.581965322E+02               0
GRID*               1957               07.9308762786E+011.4698910760E+01+
*       -7.629779455E+02               0
GRID*               1958               09.0705163749E+011.4448323643E+01+
*       -7.604078304E+02               0
GRID*               1959               01.0208732838E+021.3889814421E+01+
*       -7.578338027E+02               0
GRID*               1960               01.1344936622E+021.3097173692E+01+
*       -7.552589576E+02               0
GRID*               1961               01.2478128667E+021.2006718743E+01+
*       -7.526838386E+02               0
GRID*               1962               01.3607097617E+021.0537283034E+01+
*       -7.501090022E+02               0
GRID*               1963               01.4724938023E+028.4417952562E+00+
*       -7.475308077E+02               0
GRID*               1964               07.9288100059E+011.4660183916E+01+
*       -7.524876899E+02               0
GRID*               1965               09.0646324516E+011.4411794301E+01+
*       -7.498884499E+02               0
GRID*               1966               01.0199017771E+021.3854967535E+01+
*       -7.472852426E+02               0
GRID*               1967               01.1331390397E+021.3064571064E+01+
*       -7.446811827E+02               0
GRID*               1968               01.2460752395E+021.1978035876E+01+
*       -7.420768107E+02               0
GRID*               1969               01.3585889463E+021.0513449656E+01+
*       -7.394727002E+02               0
GRID*               1970               01.4699898425E+028.4225553742E+00+
*       -7.368650847E+02               0
GRID*               1971               07.9267439487E+011.4621504506E+01+
*       -7.419974356E+02               0
GRID*               1972               09.0587488487E+011.4375215704E+01+
*       -7.393690717E+02               0
GRID*               1973               01.0189302959E+021.3820117770E+01+
*       -7.367366861E+02               0
GRID*               1974               01.1317844672E+021.3031980785E+01+
*       -7.341034115E+02               0
GRID*               1975               01.2443376569E+021.1949367810E+01+
*       -7.314697862E+02               0
GRID*               1976               01.3564680440E+021.0489497683E+01+
*       -7.288363989E+02               0
GRID*               1977               01.4674859080E+028.4033219424E+00+
*       -7.261993630E+02               0
GRID*               1978               07.9246781073E+011.4582873892E+01+
*       -7.315071825E+02               0
GRID*               1979               09.0528655646E+011.4338589014E+01+
*       -7.288496958E+02               0
GRID*               1980               01.0179588394E+021.3785265006E+01+
*       -7.261881330E+02               0
GRID*               1981               01.1304299443E+021.2999402901E+01+
*       -7.235256440E+02               0
GRID*               1982               01.2426001191E+021.1920714994E+01+
*       -7.208627651E+02               0
GRID*               1983               01.3543470527E+021.0465423708E+01+
*       -7.182000983E+02               0
GRID*               1984               01.4649819987E+028.3840949776E+00+
*       -7.155336426E+02               0
GRID*               1985               07.9226124825E+011.4544293469E+01+
*       -7.210169307E+02               0
GRID*               1986               09.0469825976E+011.4301915546E+01+
*       -7.183303224E+02               0
GRID*               1987               01.0169874068E+021.3750409126E+01+
*       -7.156395834E+02               0
GRID*               1988               01.1290754710E+021.2966837451E+01+
*       -7.129478801E+02               0
GRID*               1989               01.2408626260E+021.1892077908E+01+
*       -7.102557474E+02               0
GRID*               1990               01.3522259709E+021.0441225026E+01+
*       -7.075637983E+02               0
GRID*               1991               01.4624781145E+028.3648744964E+00+
*       -7.048679235E+02               0
GRID*               1992               07.9205470746E+011.4505764673E+01+
*       -7.105266802E+02               0
GRID*               1993               09.0410999457E+011.4265196764E+01+
*       -7.078109512E+02               0
GRID*               1994               01.0160159974E+021.3715550018E+01+
*       -7.050910372E+02               0
GRID*               1995               01.1277210468E+021.2934284464E+01+
*       -7.023701198E+02               0
GRID*               1996               01.2391253613E+021.1863231590E+01+
*       -6.996487395E+02               0
GRID*               1997               01.3501047975E+021.0416899597E+01+
*       -6.969274987E+02               0
GRID*               1998               01.4599742551E+028.3456605149E+00+
*       -6.942022057E+02               0
GRID*               1999               07.9184818841E+011.4467288983E+01+
*       -7.000364308E+02               0
GRID*               2000               09.0352176067E+011.4228434275E+01+
*       -6.972915824E+02               0
GRID*               2001               01.0150446105E+021.3680687575E+01+
*       -6.945424945E+02               0
GRID*               2002               01.1263666716E+021.2901743963E+01+
*       -6.917923631E+02               0
GRID*               2003               01.2373868359E+021.1833796917E+01+
*       -6.890417560E+02               0
GRID*               2004               01.3479835323E+021.0392446021E+01+
*       -6.862911996E+02               0
GRID*               2005               01.4574704207E+028.3264530488E+00+
*       -6.835364893E+02               0
GRID*               2006               07.9164169113E+011.4428867926E+01+
*       -6.895461827E+02               0
GRID*               2007               09.0293355781E+011.4191629825E+01+
*       -6.867722160E+02               0
GRID*               2008               01.0140732451E+021.3645821695E+01+
*       -6.839939552E+02               0
GRID*               2009               01.1250123451E+021.2869215959E+01+
*       -6.812146099E+02               0
GRID*               2010               01.2356469497E+021.1803791488E+01+
*       -6.784347965E+02               0
GRID*               2011               01.3458621752E+021.0367863506E+01+
*       -6.756549008E+02               0
GRID*               2012               01.4549666110E+028.3072521133E+00+
*       -6.728707741E+02               0
GRID*               2013               07.9143521565E+011.4390503088E+01+
*       -6.790559359E+02               0
GRID*               2014               09.0234538573E+011.4154785296E+01+
*       -6.762528518E+02               0
GRID*               2015               01.0131019006E+021.3610952282E+01+
*       -6.734454193E+02               0
GRID*               2016               01.1236580670E+021.2836700458E+01+
*       -6.706368602E+02               0
GRID*               2017               01.2339057634E+021.1773239990E+01+
*       -6.678278601E+02               0
GRID*               2018               01.3437407266E+021.0343151837E+01+
*       -6.650186023E+02               0
GRID*               2019               01.4524628259E+028.2880577234E+00+
*       -6.622050602E+02               0
GRID*               2020               07.9122876198E+011.4352196113E+01+
*       -6.685656902E+02               0
GRID*               2021               09.0175724415E+011.4117902699E+01+
*       -6.657334900E+02               0
GRID*               2022               01.0121305761E+021.3576079248E+01+
*       -6.628968868E+02               0
GRID*               2023               01.1223038370E+021.2804197457E+01+
*       -6.600591140E+02               0
GRID*               2024               01.2321633374E+021.1742167015E+01+
*       -6.572209460E+02               0
GRID*               2025               01.3416191878E+021.0318311354E+01+
*       -6.543823040E+02               0
GRID*               2026               01.4499590653E+028.2688698936E+00+
*       -6.515393475E+02               0
GRID*               2027               07.9102233014E+011.4313948716E+01+
*       -6.580754457E+02               0
GRID*               2028               09.0116913276E+011.4080984171E+01+
*       -6.552141305E+02               0
GRID*               2029               01.0111592706E+021.3541202512E+01+
*       -6.523483576E+02               0
GRID*               2030               01.1209496547E+021.2771706944E+01+
*       -6.494813713E+02               0
GRID*               2031               01.2304197322E+021.1710597074E+01+
*       -6.466140531E+02               0
GRID*               2032               01.3394975599E+021.0293342922E+01+
*       -6.437460061E+02               0
GRID*               2033               01.4474553291E+028.2496886380E+00+
*       -6.408736360E+02               0
GRID*               2034               07.9081592012E+011.4275762692E+01+
*       -6.475852024E+02               0
GRID*               2035               09.0058105123E+011.4044031976E+01+
*       -6.446947734E+02               0
GRID*               2036               01.0101879834E+021.3506322000E+01+
*       -6.417998317E+02               0
GRID*               2037               01.1195955199E+021.2739228901E+01+
*       -6.389036320E+02               0
GRID*               2038               01.2286750077E+021.1678554595E+01+
*       -6.360071805E+02               0
GRID*               2039               01.3373758450E+021.0268247907E+01+
*       -6.331097083E+02               0
GRID*               2040               01.4449516173E+028.2305139701E+00+
*       -6.302079258E+02               0
GRID*               2041               07.9060953191E+011.4237639922E+01+
*       -6.370949602E+02               0
GRID*               2042               08.9999299924E+011.4007048495E+01+
*       -6.341754185E+02               0
GRID*               2043               01.0092167134E+021.3471437646E+01+
*       -6.312513092E+02               0
GRID*               2044               01.1182414322E+021.2706763302E+01+
*       -6.283258961E+02               0
GRID*               2045               01.2269292242E+021.1646063929E+01+
*       -6.254003273E+02               0
GRID*               2046               01.3352540451E+021.0243028153E+01+
*       -6.224734107E+02               0
GRID*               2047               01.4424479296E+028.2113459033E+00+
*       -6.195422168E+02               0
GRID*               2048               07.9040316549E+011.4199582387E+01+
*       -6.266047192E+02               0
GRID*               2049               08.9940497641E+011.3970036226E+01+
*       -6.236560660E+02               0
GRID*               2050               01.0082455694E+021.3436481785E+01+
*       -6.207027905E+02               0
GRID*               2051               01.1168873912E+021.2674310113E+01+
*       -6.177481636E+02               0
GRID*               2052               01.2251824413E+021.1613149358E+01+
*       -6.147934925E+02               0
GRID*               2053               01.3331321630E+021.0217685957E+01+
*       -6.118371134E+02               0
GRID*               2054               01.4399442661E+028.1921844503E+00+
*       -6.088765090E+02               0
GRID*               2055               07.9019682083E+011.4161592184E+01+
*       -6.161144793E+02               0
GRID*               2056               08.9881698237E+011.3932997782E+01+
*       -6.131367157E+02               0
GRID*               2057               01.0072737284E+021.3400254567E+01+
*       -6.101542902E+02               0
GRID*               2058               01.1155333967E+021.2641869294E+01+
*       -6.071704344E+02               0
GRID*               2059               01.2234347190E+021.1579835096E+01+
*       -6.041866754E+02               0
GRID*               2060               01.3310102017E+021.0192224048E+01+
*       -6.012008162E+02               0
GRID*               2061               01.4374406264E+028.1730296234E+00+
*       -5.982108023E+02               0
GRID*               2062               07.8999049787E+011.4123671536E+01+
*       -6.056242406E+02               0
GRID*               2063               08.9822901674E+011.3895935888E+01+
*       -6.026173678E+02               0
GRID*               2064               01.0063004240E+021.3362415139E+01+
*       -5.996058126E+02               0
GRID*               2065               01.1141794482E+021.2609440796E+01+
*       -5.965927086E+02               0
GRID*               2066               01.2216861169E+021.1546145296E+01+
*       -5.935798748E+02               0
GRID*               2067               01.3288881643E+021.0166645567E+01+
*       -5.905645193E+02               0
GRID*               2068               01.4349370107E+028.1538814344E+00+
*       -5.875450968E+02               0
GRID*               2069               07.8978380417E+011.4085731858E+01+
*       -5.951340034E+02               0
GRID*               2070               08.9764107911E+011.3858853379E+01+
*       -5.920980221E+02               0
GRID*               2071               01.0053257752E+021.3323091779E+01+
*       -5.890573564E+02               0
GRID*               2072               01.1128255453E+021.2577024566E+01+
*       -5.860149860E+02               0
GRID*               2073               01.2199366944E+021.1512104058E+01+
*       -5.829730899E+02               0
GRID*               2074               01.3267660547E+021.0140954045E+01+
*       -5.799282226E+02               0
GRID*               2075               01.4324334186E+028.1347398946E+00+
*       -5.768793925E+02               0
GRID*               2076               07.8957625353E+011.4046830819E+01+
*       -5.846437712E+02               0
GRID*               2077               08.9705316904E+011.3821753198E+01+
*       -5.815786788E+02               0
GRID*               2078               01.0043498965E+021.3282408147E+01+
*       -5.785089198E+02               0
GRID*               2079               01.1114716876E+021.2544620542E+01+
*       -5.754372667E+02               0
GRID*               2080               01.2181865112E+021.1477735428E+01+
*       -5.723663198E+02               0
GRID*               2081               01.3246438768E+021.0115153382E+01+
*       -5.692919262E+02               0
GRID*               2082               01.4299298501E+028.1156050147E+00+
*       -5.662136893E+02               0
GRID*               2083               07.8936878854E+011.4007499639E+01+
*       -5.741535417E+02               0
GRID*               2084               08.9646528612E+011.3784638396E+01+
*       -5.710593377E+02               0
GRID*               2085               01.0033728984E+021.3240483437E+01+
*       -5.679605016E+02               0
GRID*               2086               01.1101178747E+021.2512228656E+01+
*       -5.648595506E+02               0
GRID*               2087               01.2164356265E+021.1443063409E+01+
*       -5.617595635E+02               0
GRID*               2088               01.3225216349E+021.0089247836E+01+
*       -5.586556302E+02               0
GRID*               2089               01.4274263052E+028.0964768051E+00+
*       -5.555479872E+02               0
GRID*               2090               07.8916149957E+011.3968415492E+01+
*       -5.636633127E+02               0
GRID*               2091               08.9587742988E+011.3747512132E+01+
*       -5.605399990E+02               0
GRID*               2092               01.0023948874E+021.3197432535E+01+
*       -5.574121002E+02               0
GRID*               2093               01.1087641063E+021.2479848835E+01+
*       -5.542818377E+02               0
GRID*               2094               01.2146840998E+021.1408111963E+01+
*       -5.511528201E+02               0
GRID*               2095               01.3203993334E+021.0063241997E+01+
*       -5.480193344E+02               0
GRID*               2096               01.4249227835E+028.0773552751E+00+
*       -5.448822862E+02               0
GRID*               2097               07.8895444053E+011.3930002918E+01+
*       -5.531730827E+02               0
GRID*               2098               08.9528959985E+011.3710377672E+01+
*       -5.500206625E+02               0
GRID*               2099               01.0014159661E+021.3153366165E+01+
*       -5.468637143E+02               0
GRID*               2100               01.1074103818E+021.2447480998E+01+
*       -5.437041280E+02               0
GRID*               2101               01.2129319902E+021.1372905021E+01+
*       -5.405460888E+02               0
GRID*               2102               01.3182769774E+021.0037140775E+01+
*       -5.373830391E+02               0
GRID*               2103               01.4224192851E+028.0582404338E+00+
*       -5.342165863E+02               0
GRID*               2104               07.8874764238E+011.3892527177E+01+
*       -5.426828506E+02               0
GRID*               2105               08.9470179557E+011.3673238390E+01+
*       -5.395013284E+02               0
GRID*               2106               01.0004362333E+021.3108391032E+01+
*       -5.363153425E+02               0
GRID*               2107               01.1060567009E+021.2415125059E+01+
*       -5.331264214E+02               0
GRID*               2108               01.2111793571E+021.1337466482E+01+
*       -5.299393685E+02               0
GRID*               2109               01.3161545718E+021.0010949386E+01+
*       -5.267467442E+02               0
GRID*               2110               01.4199158098E+028.0391322893E+00+
*       -5.235508875E+02               0
GRID*               2111               07.8854112099E+011.3856148683E+01+
*       -5.321926160E+02               0
GRID*               2112               08.9411401654E+011.3636097774E+01+
*       -5.289819965E+02               0
GRID*               2113               09.9945578423E+011.3062609966E+01+
*       -5.257669836E+02               0
GRID*               2114               01.1047030630E+021.2382780927E+01+
*       -5.225487180E+02               0
GRID*               2115               01.2094262596E+021.1301820227E+01+
*       -5.193326584E+02               0
GRID*               2116               01.3140321220E+029.9846733311E+00+
*       -5.161104498E+02               0
GRID*               2117               01.4174123574E+028.0200308492E+00+
*       -5.128851897E+02               0
GRID*               2118               07.8833488186E+011.3820956060E+01+
*       -5.217023785E+02               0
GRID*               2119               08.9352626224E+011.3598959421E+01+
*       -5.184626669E+02               0
GRID*               2120               09.9847471078E+011.3016122050E+01+
*       -5.152186364E+02               0
GRID*               2121               01.1033494677E+021.2350448504E+01+
*       -5.119710175E+02               0
GRID*               2122               01.2076727569E+021.1265990118E+01+
*       -5.087259575E+02               0
GRID*               2123               01.3119096336E+029.9583183912E+00+
*       -5.054741560E+02               0
GRID*               2124               01.4149089279E+028.0009361200E+00+
*       -5.022194929E+02               0
GRID*               2125               07.8812892309E+011.3786986817E+01+
*       -5.112121379E+02               0
GRID*               2126               08.9293853217E+011.3561827050E+01+
*       -5.079433397E+02               0
GRID*               2127               09.9749310134E+011.2969022755E+01+
*       -5.046702996E+02               0
GRID*               2128               01.1019959146E+021.2318127687E+01+
*       -5.013933201E+02               0
GRID*               2129               01.2059189083E+021.1230000009E+01+
*       -4.981192649E+02               0
GRID*               2130               01.3097871124E+029.9318906080E+00+
*       -4.948378628E+02               0
GRID*               2131               01.4124055210E+027.9818481076E+00+
*       -4.915537972E+02               0
GRID*               2132               07.8792323723E+011.3754240519E+01+
*       -5.007218944E+02               0
GRID*               2133               08.9235082578E+011.3524704500E+01+
*       -4.974240147E+02               0
GRID*               2134               09.9651104109E+011.2921404066E+01+
*       -4.941219722E+02               0
GRID*               2135               01.1006424031E+021.2285818368E+01+
*       -4.908156257E+02               0
GRID*               2136               01.2041647729E+021.1193873752E+01+
*       -4.875125797E+02               0
GRID*               2137               01.3076645645E+029.9053962753E+00+
*       -4.842015703E+02               0
GRID*               2138               01.4099021366E+027.9627668167E+00+
*       -4.808881024E+02               0
GRID*               2139               07.8771781242E+011.3722687137E+01+
*       -4.902316480E+02               0
GRID*               2140               08.9176314253E+011.3487595741E+01+
*       -4.869046920E+02               0
GRID*               2141               09.9552861209E+011.2873354607E+01+
*       -4.835736530E+02               0
GRID*               2142               01.0992889328E+021.2253520436E+01+
*       -4.802379343E+02               0
GRID*               2143               01.2024104101E+021.1157635200E+01+
*       -4.769059010E+02               0
GRID*               2144               01.3055419960E+029.8788419280E+00+
*       -4.735652785E+02               0
GRID*               2145               01.4073987747E+027.9436922510E+00+
*       -4.702224087E+02               0
GRID*               2146               07.8751263306E+011.3692272148E+01+
*       -4.797413989E+02               0
GRID*               2147               08.9117548185E+011.3450504885E+01+
*       -4.763853716E+02               0
GRID*               2148               09.9454589339E+011.2824959758E+01+
*       -4.730253409E+02               0
GRID*               2149               01.0979355032E+021.2221233771E+01+
*       -4.696602458E+02               0
GRID*               2150               01.2006558791E+021.1121308219E+01+
*       -4.662992278E+02               0
GRID*               2151               01.3034194136E+029.8522343334E+00+
*       -4.629289876E+02               0
GRID*               2152               01.4048954350E+027.9246244132E+00+
*       -4.595567159E+02               0
GRID*               2153               07.8730768011E+011.3662919214E+01+
*       -4.692511473E+02               0
GRID*               2154               08.9058784317E+011.3413436192E+01+
*       -4.658660535E+02               0
GRID*               2155               09.9356296114E+011.2776301772E+01+
*       -4.624770350E+02               0
GRID*               2156               01.0965821137E+021.2188958253E+01+
*       -4.590825602E+02               0
GRID*               2157               01.1989012395E+021.1084916694E+01+
*       -4.556925592E+02               0
GRID*               2158               01.3012968237E+029.8255804827E+00+
*       -4.522926977E+02               0
GRID*               2159               01.4023921174E+027.9055633046E+00+
*       -4.488910241E+02               0
GRID*               2160               07.8710293101E+011.3634530896E+01+
*       -4.587608935E+02               0
GRID*               2161               08.9000022589E+011.3376394088E+01+
*       -4.553467377E+02               0
GRID*               2162               09.9257988867E+011.2727459893E+01+
*       -4.519287342E+02               0
GRID*               2163               01.0952287639E+021.2156693755E+01+
*       -4.485048774E+02               0
GRID*               2164               01.1971465505E+021.1048484533E+01+
*       -4.450858942E+02               0
GRID*               2165               01.2991742334E+029.7988875856E+00+
*       -4.416564087E+02               0
GRID*               2166               01.3998888217E+027.8865089251E+00+
*       -4.382253332E+02               0
GRID*               2167               07.8689835936E+011.3606987467E+01+
*       -4.482706381E+02               0
GRID*               2168               08.8941262941E+011.3339383180E+01+
*       -4.448274242E+02               0
GRID*               2169               09.9159674664E+011.2678510459E+01+
*       -4.413804376E+02               0
GRID*               2170               01.0938754531E+021.2124440148E+01+
*       -4.379271975E+02               0
GRID*               2171               01.1953918719E+021.1012035679E+01+
*       -4.344792320E+02               0
GRID*               2172               01.2970516496E+029.7721630649E+00+
*       -4.310201208E+02               0
GRID*               2173               01.3973855477E+027.8674612731E+00+
*       -4.275596432E+02               0
GRID*               2174               07.8669393414E+011.3580143641E+01+
*       -4.377803814E+02               0
GRID*               2175               08.8882505310E+011.3302408280E+01+
*       -4.343081130E+02               0
GRID*               2176               09.9061360308E+011.2629527017E+01+
*       -4.308321442E+02               0
GRID*               2177               01.0925221809E+021.2092197296E+01+
*       -4.273495203E+02               0
GRID*               2178               01.1936372633E+021.0975594117E+01+
*       -4.238725717E+02               0
GRID*               2179               01.2949290795E+029.7454145542E+00+
*       -4.203838341E+02               0
GRID*               2180               01.3948822954E+027.8484203452E+00+
*       -4.168939541E+02               0
GRID*               2181               07.8648961850E+011.3553822633E+01+
*       -4.272901241E+02               0
GRID*               2182               08.8823749631E+011.3265474431E+01+
*       -4.237888041E+02               0
GRID*               2183               09.8963052354E+011.2580580424E+01+
*       -4.202838532E+02               0
GRID*               2184               01.0911689467E+021.2059965064E+01+
*       -4.167718459E+02               0
GRID*               2185               01.1918827846E+021.0939183882E+01+
*       -4.132659122E+02               0
GRID*               2186               01.2928065307E+029.7186498972E+00+
*       -4.097475487E+02               0
GRID*               2187               01.3923790645E+027.8293861362E+00+
*       -4.062282659E+02               0
GRID*               2188               07.8628536777E+011.3527806452E+01+
*       -4.167998670E+02               0
GRID*               2189               08.8764995839E+011.3228586937E+01+
*       -4.132694975E+02               0
GRID*               2190               09.8864757117E+011.2531738951E+01+
*       -4.097355637E+02               0
GRID*               2191               01.0898157500E+021.2027743311E+01+
*       -4.061941742E+02               0
GRID*               2192               01.1901284958E+021.0902829066E+01+
*       -4.026592526E+02               0
GRID*               2193               01.2906840108E+029.6918771498E+00+
*       -3.991112647E+02               0
GRID*               2194               01.3898758549E+027.8103586387E+00+
*       -3.955625785E+02               0
GRID*               2195               07.8608112640E+011.3501820461E+01+
*       -4.063096110E+02               0
GRID*               2196               08.8706243863E+011.3191751408E+01+
*       -4.027501933E+02               0
GRID*               2197               09.8766480679E+011.2483068385E+01+
*       -3.991872749E+02               0
GRID*               2198               01.0884625902E+021.1995531893E+01+
*       -3.956165052E+02               0
GRID*               2199               01.1883744572E+021.0866553831E+01+
*       -3.920525920E+02               0
GRID*               2200               01.2885615276E+029.6651045851E+00+
*       -3.884749822E+02               0
GRID*               2201               01.3873726663E+027.7913378431E+00+
*       -3.848968920E+02               0
GRID*               2202               07.8587682303E+011.3475508677E+01+
*       -3.958193573E+02               0
GRID*               2203               08.8647493632E+011.3154973805E+01+
*       -3.922308913E+02               0
GRID*               2204               09.8668228902E+011.2434632124E+01+
*       -3.886389859E+02               0
GRID*               2205               01.0871094667E+021.1963330666E+01+
*       -3.850388388E+02               0
GRID*               2206               01.1866207293E+021.0830382415E+01+
*       -3.814459295E+02               0
GRID*               2207               01.2864390891E+029.6383407020E+00+
*       -3.778387012E+02               0
GRID*               2208               01.3848694986E+027.7723237369E+00+
*       -3.742312063E+02               0
GRID*               2209               07.8567236249E+011.3448393288E+01+
*       -3.853291077E+02               0
GRID*               2210               08.8588745073E+011.3118260505E+01+
*       -3.817115917E+02               0
GRID*               2211               09.8570007434E+011.2386491277E+01+
*       -3.780906960E+02               0
GRID*               2212               01.0857563790E+021.1931139483E+01+
*       -3.744611750E+02               0
GRID*               2213               01.1848673726E+021.0794339143E+01+
*       -3.708392640E+02               0
GRID*               2214               01.2843167038E+029.6115942383E+00+
*       -3.672024219E+02               0
GRID*               2215               01.3823663515E+027.7533163048E+00+
*       -3.635655215E+02               0
GRID*               2216               07.8546761228E+011.3419805884E+01+
*       -3.748388644E+02               0
GRID*               2217               08.8529998106E+011.3081618380E+01+
*       -3.711922945E+02               0
GRID*               2218               09.8471821718E+011.2338704757E+01+
*       -3.675424045E+02               0
GRID*               2219               01.0844033264E+021.1898958192E+01+
*       -3.638835138E+02               0
GRID*               2220               01.1831144482E+021.0758448439E+01+
*       -3.602325947E+02               0
GRID*               2221               01.2821943802E+029.5848741887E+00+
*       -3.565661445E+02               0
GRID*               2222               01.3798632249E+027.7343155280E+00+
*       -3.528998374E+02               0
GRID*               2223               07.8526237834E+011.3388764820E+01+
*       -3.643486309E+02               0
GRID*               2224               08.8471252651E+011.3045054890E+01+
*       -3.606729996E+02               0
GRID*               2225               09.8373677003E+011.2291329376E+01+
*       -3.569941106E+02               0
GRID*               2226               01.0830503085E+021.1866786646E+01+
*       -3.533058551E+02               0
GRID*               2227               01.1813620173E+021.0722734834E+01+
*       -3.496259206E+02               0
GRID*               2228               01.2800721271E+029.5581898302E+00+
*       -3.459298689E+02               0
GRID*               2229               01.3773601186E+027.7153213841E+00+
*       -3.422341541E+02               0
GRID*               2230               07.8505651235E+011.3353862023E+01+
*       -3.538584121E+02               0
GRID*               2231               08.8412508619E+011.3008578213E+01+
*       -3.501537070E+02               0
GRID*               2232               09.8275578351E+011.2244419935E+01+
*       -3.464458136E+02               0
GRID*               2233               01.0816973245E+021.1834624692E+01+
*       -3.427281988E+02               0
GRID*               2234               01.1796101414E+021.0687222980E+01+
*       -3.390192406E+02               0
GRID*               2235               01.2779499537E+029.5315507548E+00+
*       -3.352935954E+02               0
GRID*               2236               01.3748570323E+027.6963338462E+00+
*       -3.315684715E+02               0
GRID*               2237               07.8485084585E+011.3317846826E+01+
*       -3.433682029E+02               0
GRID*               2238               08.8353765919E+011.2972197397E+01+
*       -3.396344169E+02               0
GRID*               2239               09.8177530645E+011.2198029315E+01+
*       -3.358975129E+02               0
GRID*               2240               01.0803443739E+021.1802472179E+01+
*       -3.321505450E+02               0
GRID*               2241               01.1778588825E+021.0651937659E+01+
*       -3.284125539E+02               0
GRID*               2242               01.2758278696E+029.5049669133E+00+
*       -3.246573240E+02               0
GRID*               2243               01.3723539657E+027.6773528827E+00+
*       -3.209027897E+02               0
GRID*               2244               07.8464511015E+011.3282561033E+01+
*       -3.328779993E+02               0
GRID*               2245               08.8295023584E+011.2935918447E+01+
*       -3.291151292E+02               0
GRID*               2246               09.8079538596E+011.2152208565E+01+
*       -3.253492077E+02               0
GRID*               2247               01.0789914561E+021.1770328956E+01+
*       -3.215728936E+02               0
GRID*               2248               01.1761083029E+021.0616903797E+01+
*       -3.178058595E+02               0
GRID*               2249               01.2737058846E+029.4784486721E+00+
*       -3.140210549E+02               0
GRID*               2250               01.3698509187E+027.6583784563E+00+
*       -3.102371085E+02               0
GRID*               2251               07.8443931958E+011.3247847923E+01+
*       -3.223878004E+02               0
GRID*               2252               08.8236280403E+011.2899668057E+01+
*       -3.185958434E+02               0
GRID*               2253               09.7981606756E+011.2107006994E+01+
*       -3.148008975E+02               0
GRID*               2254               01.0776385705E+021.1738194875E+01+
*       -3.109952445E+02               0
GRID*               2255               01.1743584653E+021.0582146477E+01+
*       -3.071991563E+02               0
GRID*               2256               01.2715840094E+029.4520068874E+00+
*       -3.033847883E+02               0
GRID*               2257               01.3673478909E+027.6394105233E+00+
*       -2.995714281E+02               0
GRID*               2258               07.8423348663E+011.3213571056E+01+
*       -3.118976055E+02               0
GRID*               2259               08.8177538958E+011.2863415624E+01+
*       -3.080765596E+02               0
GRID*               2260               09.7883739522E+011.2062472257E+01+
*       -3.042525817E+02               0
GRID*               2261               01.0762857165E+021.1706069787E+01+
*       -3.004175978E+02               0
GRID*               2262               01.1726094329E+021.0547690951E+01+
*       -2.965924434E+02               0
GRID*               2263               01.2694622549E+029.4256530016E+00+
*       -2.927485242E+02               0
GRID*               2264               01.3648448821E+027.6204490328E+00+
*       -2.889057484E+02               0
GRID*               2265               07.8402762225E+011.3179611546E+01+
*       -3.014074139E+02               0
GRID*               2266               08.8118799223E+011.2827161169E+01+
*       -2.975572777E+02               0
GRID*               2267               09.7785941145E+011.2018650441E+01+
*       -2.937042595E+02               0
GRID*               2268               01.0749328935E+021.1673953547E+01+
*       -2.898399533E+02               0
GRID*               2269               01.1708612693E+021.0513562658E+01+
*       -2.859857198E+02               0
GRID*               2270               01.2673406330E+029.3993991701E+00+
*       -2.821122628E+02               0
GRID*               2271               01.3623418919E+027.6014939252E+00+
*       -2.782400693E+02               0
GRID*               2272               07.8382173598E+011.3145865733E+01+
*       -2.909172249E+02               0
GRID*               2273               08.8060061170E+011.2790904711E+01+
*       -2.870379975E+02               0
GRID*               2274               09.7688215739E+011.1975586152E+01+
*       -2.831559306E+02               0
GRID*               2275               01.0735801008E+021.1641846014E+01+
*       -2.792623110E+02               0
GRID*               2276               01.1691140386E+021.0479787233E+01+
*       -2.753789845E+02               0
GRID*               2277               01.2652191565E+029.3732584268E+00+
*       -2.714760044E+02               0
GRID*               2278               01.3598389201E+027.5825451315E+00+
*       -2.675743908E+02               0
GRID*               2279               07.8361583620E+011.3112243221E+01+
*       -2.804270380E+02               0
GRID*               2280               08.8001324769E+011.2754646267E+01+
*       -2.765187192E+02               0
GRID*               2281               09.7590567286E+011.1933322606E+01+
*       -2.726075942E+02               0
GRID*               2282               01.0722273378E+021.1609747051E+01+
*       -2.686846709E+02               0
GRID*               2283               01.1673678057E+021.0446390527E+01+
*       -2.647722364E+02               0
GRID*               2284               01.2630978393E+029.3472449056E+00+
*       -2.608397490E+02               0
GRID*               2285               01.3573359663E+027.5636025709E+00+
*       -2.569087130E+02               0
GRID*               2286               07.8340993021E+011.3078665196E+01+
*       -2.699368527E+02               0
GRID*               2287               08.7942589989E+011.2718385851E+01+
*       -2.659994427E+02               0
GRID*               2288               09.7492999651E+011.1891901709E+01+
*       -2.620592499E+02               0
GRID*               2289               01.0708746040E+021.1577656528E+01+
*       -2.581070330E+02               0
GRID*               2290               01.1656226358E+021.0413398622E+01+
*       -2.541654746E+02               0
GRID*               2291               01.2609766968E+029.3213741354E+00+
*       -2.502034969E+02               0
GRID*               2292               01.3548330300E+027.5446661496E+00+
*       -2.462430357E+02               0
GRID*               2293               07.8320402442E+011.3045062983E+01+
*       -2.594466687E+02               0
GRID*               2294               08.7883856799E+011.2682123477E+01+
*       -2.554801679E+02               0
GRID*               2295               09.7395516582E+011.1851364149E+01+
*       -2.515108971E+02               0
GRID*               2296               01.0695218987E+021.1545574323E+01+
*       -2.475293971E+02               0
GRID*               2297               01.1638785949E+021.0380837847E+01+
*       -2.435586979E+02               0
GRID*               2298               01.2588557463E+029.2956634407E+00+
*       -2.395672483E+02               0
GRID*               2299               01.3523301109E+027.5257357580E+00+
*       -2.355773591E+02               0
GRID*               2300               07.8299812440E+011.3011376810E+01+
*       -2.489564855E+02               0
GRID*               2301               08.7825125164E+011.2645859157E+01+
*       -2.449608949E+02               0
GRID*               2302               09.7298121724E+011.1811749482E+01+
*       -2.409625353E+02               0
GRID*               2303               01.0681692213E+021.1513500322E+01+
*       -2.369517633E+02               0
GRID*               2304               01.1621357497E+021.0348734800E+01+
*       -2.329519054E+02               0
GRID*               2305               01.2567350074E+029.2701324922E+00+
*       -2.289310035E+02               0
GRID*               2306               01.3498272086E+027.5068112682E+00+
*       -2.249116830E+02               0
GRID*               2307               07.8279223502E+011.2977554737E+01+
*       -2.384663029E+02               0
GRID*               2308               08.7766395049E+011.2609592905E+01+
*       -2.344416235E+02               0
GRID*               2309               09.7200818623E+011.1773096220E+01+
*       -2.304141639E+02               0
GRID*               2310               01.0668165712E+021.1481434425E+01+
*       -2.263741315E+02               0
GRID*               2311               01.1603941676E+021.0317116362E+01+
*       -2.223450960E+02               0
GRID*               2312               01.2546145032E+029.2448040759E+00+
*       -2.182947628E+02               0
GRID*               2313               01.3473243224E+027.4878925304E+00+
*       -2.142460074E+02               0
GRID*               2314               07.8258636051E+011.2943551725E+01+
*       -2.279761205E+02               0
GRID*               2315               08.7707666416E+011.2573324733E+01+
*       -2.239223538E+02               0
GRID*               2316               09.7103610739E+011.1735441922E+01+
*       -2.198657826E+02               0
GRID*               2317               01.0654639479E+021.1449376542E+01+
*       -2.157965016E+02               0
GRID*               2318               01.1586539168E+021.0286009719E+01+
*       -2.117382687E+02               0
GRID*               2319               01.2524942611E+029.2197051865E+00+
*       -2.076585265E+02               0
GRID*               2320               01.3448214518E+027.4689793690E+00+
*       -2.035803323E+02               0
GRID*               2321               07.8238050453E+011.2909328833E+01+
*       -2.174859382E+02               0
GRID*               2322               08.7648939226E+011.2537054658E+01+
*       -2.134030857E+02               0
GRID*               2323               09.7006501447E+011.1698823281E+01+
*       -2.093173908E+02               0
GRID*               2324               01.0641113506E+021.1417326606E+01+
*       -2.052188737E+02               0
GRID*               2325               01.1569150662E+021.0255442386E+01+
*       -2.011314222E+02               0
GRID*               2326               01.2503743252E+029.1948606446E+00+
*       -1.970222950E+02               0
GRID*               2327               01.3423185961E+027.4500715791E+00+
*       -1.929146578E+02               0
GRID*               2328               07.8217467025E+011.2874852509E+01+
*       -2.069957557E+02               0
GRID*               2329               08.7590213430E+011.2500782696E+01+
*       -2.028838193E+02               0
GRID*               2330               09.6909494035E+011.1663276225E+01+
*       -1.987689880E+02               0
GRID*               2331               01.0627587785E+021.1385284567E+01+
*       -1.946412476E+02               0
GRID*               2332               01.1551776854E+021.0225442232E+01+
*       -1.905245556E+02               0
GRID*               2333               01.2482544380E+029.1700485536E+00+
*       -1.863860679E+02               0
GRID*               2334               01.3398157541E+027.4311689253E+00+
*       -1.822489837E+02               0
GRID*               2335               07.8196886024E+011.2840093972E+01+
*       -1.965055728E+02               0
GRID*               2336               08.7531488928E+011.2464508875E+01+
*       -1.923645544E+02               0
GRID*               2337               09.6812591640E+011.1628836006E+01+
*       -1.882205738E+02               0
GRID*               2338               01.0614062296E+021.1353250409E+01+
*       -1.840636233E+02               0
GRID*               2339               01.1534418434E+021.0196037516E+01+
*       -1.799176678E+02               0
GRID*               2340               01.2461343503E+029.1451548876E+00+
*       -1.757498450E+02               0
GRID*               2341               01.3373129237E+027.4122711408E+00+
*       -1.715833101E+02               0
GRID*               2342               07.8176307603E+011.2805028670E+01+
*       -1.860153894E+02               0
GRID*               2343               08.7472765452E+011.2428233232E+01+
*       -1.818452910E+02               0
GRID*               2344               09.6715797104E+011.1595537319E+01+
*       -1.776721476E+02               0
GRID*               2345               01.0600536990E+021.1321224157E+01+
*       -1.734860008E+02               0
GRID*               2346               01.1517076079E+021.0167256927E+01+
*       -1.693107575E+02               0
GRID*               2347               01.2440140637E+029.1201818157E+00+
*       -1.651136262E+02               0
GRID*               2348               01.3348101020E+027.3933779222E+00+
*       -1.609176369E+02               0
GRID*               2349               07.8155731685E+011.2769635804E+01+
*       -1.755252052E+02               0
GRID*               2350               08.7414042361E+011.2391955831E+01+
*       -1.713260292E+02               0
GRID*               2351               09.6619112779E+011.1563414406E+01+
*       -1.671237091E+02               0
GRID*               2352               01.0587011778E+021.1289205891E+01+
*       -1.629083799E+02               0
GRID*               2353               01.1499750445E+021.0139129619E+01+
*       -1.587038236E+02               0
GRID*               2354               01.2418935792E+029.0951321194E+00+
*       -1.544774113E+02               0
GRID*               2355               01.3323072848E+027.3744889098E+00+
*       -1.502519641E+02               0
GRID*               2356               07.8135157750E+011.2733897903E+01+
*       -1.650350203E+02               0
GRID*               2357               08.7355318364E+011.2355676774E+01+
*       -1.608067688E+02               0
GRID*               2358               09.6522540392E+011.1532501167E+01+
*       -1.565752577E+02               0
GRID*               2359               01.0573486531E+021.1257195759E+01+
*       -1.523307607E+02               0
GRID*               2360               01.1482442180E+021.0111685220E+01+
*       -1.480968651E+02               0
GRID*               2361               01.2397728991E+029.0700092657E+00+
*       -1.438412002E+02               0
GRID*               2362               01.3298044683E+027.3556036550E+00+
*       -1.395862918E+02               0
GRID*               2363               07.8114584361E+011.2697800459E+01+
*       -1.545448344E+02               0
GRID*               2364               08.7296591228E+011.2319396220E+01+
*       -1.502875098E+02               0
GRID*               2365               09.6426081121E+011.1502831258E+01+
*       -1.460267930E+02               0
GRID*               2366               01.0559961107E+021.1225193977E+01+
*       -1.417531431E+02               0
GRID*               2367               01.1465151950E+021.0084953823E+01+
*       -1.374898806E+02               0
GRID*               2368               01.2376520289E+029.0448174890E+00+
*       -1.332049927E+02               0
GRID*               2369               01.3273016491E+027.3367215774E+00+
*       -1.289206198E+02               0
GRID*               2370               07.8094007777E+011.2661331614E+01+
*       -1.440546475E+02               0
GRID*               2371               08.7237857590E+011.2283114396E+01+
*       -1.397682522E+02               0
GRID*               2372               09.6329736032E+011.1474438164E+01+
*       -1.354783146E+02               0
GRID*               2373               01.0546435397E+021.1193200823E+01+
*       -1.311755270E+02               0
GRID*               2374               01.1447880474E+021.0058965974E+01+
*       -1.268828690E+02               0
GRID*               2375               01.2355309797E+029.0195619023E+00+
*       -1.225687885E+02               0
GRID*               2376               01.3247988252E+027.3178419215E+00+
*       -1.182549481E+02               0
GRID*               2377               07.8073419678E+011.2624481910E+01+
*       -1.335644594E+02               0
GRID*               2378               08.7179114014E+011.2246831567E+01+
*       -1.292489960E+02               0
GRID*               2379               09.6233507172E+011.1447355240E+01+
*       -1.249298220E+02               0
GRID*               2380               01.0532909383E+021.1161216629E+01+
*       -1.205979124E+02               0
GRID*               2381               01.1430628546E+021.0033752677E+01+
*       -1.162758290E+02               0
GRID*               2382               01.2334097689E+028.9942486550E+00+
*       -1.119325873E+02               0
GRID*               2383               01.3222959957E+027.2989637144E+00+
*       -1.075892769E+02               0
GRID*               2384               07.8052814940E+011.2587243907E+01+
*       -1.230742702E+02               0
GRID*               2385               08.7120361057E+011.2210547885E+01+
*       -1.187297410E+02               0
GRID*               2386               09.6137398833E+011.1421615767E+01+
*       -1.143813147E+02               0
GRID*               2387               01.0519383163E+021.1129241793E+01+
*       -1.100202992E+02               0
GRID*               2388               01.1413397033E+021.0009345443E+01+
*       -1.056687596E+02               0
GRID*               2389               01.2312884199E+028.9688851498E+00+
*       -1.012963889E+02               0
GRID*               2390               01.3197932524E+027.2801560231E+00+
*       -9.692360577E+01               0
GRID*               2391               07.8032209450E+011.2549611584E+01+
*       -1.125840798E+02               0
GRID*               2392               08.7061604461E+011.2174263360E+01+
*       -1.082104874E+02               0
GRID*               2393               09.6041416733E+011.1397253145E+01+
*       -1.038327924E+02               0
GRID*               2394               01.0505856880E+021.1097276842E+01+
*       -9.944268737E+01               0
GRID*               2395               01.1396186832E+029.9857763782E+00+
*       -9.506165927E+01               0
GRID*               2396               01.2291669603E+028.9434803176E+00+
*       -9.066019282E+01               0
GRID*               2397               01.3172907233E+027.2614578456E+00+
*       -8.625793436E+01               0
GRID*               2398               07.8011605363E+011.2511580682E+01+
*       -1.020938881E+02               0
GRID*               2399               08.7002846006E+011.2137978242E+01+
*       -9.769123510E+01               0
GRID*               2400               09.5945565410E+011.1374301206E+01+
*       -9.328425459E+01               0
GRID*               2401               01.0492330635E+021.1065322507E+01+
*       -8.886507690E+01               0
GRID*               2402               01.1378998838E+029.9630782728E+00+
*       -8.445452687E+01               0
GRID*               2403               01.2270454218E+028.9180449406E+00+
*       -8.002399867E+01               0
GRID*               2404               01.3147880141E+027.2426763917E+00+
*       -7.559226381E+01               0
GRID*               2405               07.7991003687E+011.2473148319E+01+
*       -9.160369519E+01               0
GRID*               2406               08.6944086622E+011.2101692940E+01+
*       -8.717198404E+01               0
GRID*               2407               09.5849848950E+011.1352794295E+01+
*       -8.273570080E+01               0
GRID*               2408               01.0478804504E+021.1033379786E+01+
*       -7.828746770E+01               0
GRID*               2409               01.1361833949E+029.9412846380E+00+
*       -7.384736105E+01               0
GRID*               2410               01.2249238404E+028.8925920332E+00+
*       -6.938780590E+01               0
GRID*               2411               01.3122848813E+027.2237726147E+00+
*       -6.492660118E+01               0
GRID*               2412               07.7970404939E+011.2434312794E+01+
*       -8.111350094E+01               0
GRID*               2413               08.6885326763E+011.2065408057E+01+
*       -7.665273420E+01               0
GRID*               2414               09.5754271167E+011.1332767404E+01+
*       -7.218713057E+01               0
GRID*               2415               01.0465278542E+021.1001450023E+01+
*       -6.770985970E+01               0
GRID*               2416               01.1344693064E+029.9204297471E+00+
*       -6.324016046E+01               0
GRID*               2417               01.2228022581E+028.8671373186E+00+
*       -5.875161385E+01               0
GRID*               2418               01.3097812353E+027.2048776797E+00+
*       -5.426095283E+01               0
GRID*               2419               07.7949809398E+011.2395073409E+01+
*       -7.062330535E+01               0
GRID*               2420               08.6826566573E+011.2029124469E+01+
*       -6.613348554E+01               0
GRID*               2421               09.5658835724E+011.1314256323E+01+
*       -6.163854340E+01               0
GRID*               2422               01.0451752789E+021.0969535034E+01+
*       -5.713225282E+01               0
GRID*               2423               01.1327577088E+029.9005486757E+00+
*       -5.263292371E+01               0
GRID*               2424               01.2206807246E+028.8416998365E+00+
*       -4.811542175E+01               0
GRID*               2425               01.3072772592E+027.1859890937E+00+
*       -4.359531362E+01               0
GRID*               2426               07.7929217208E+011.2355430312E+01+
*       -6.013310840E+01               0
GRID*               2427               08.6767805970E+011.1992843454E+01+
*       -5.561423800E+01               0
GRID*               2428               09.5563546230E+011.1297297799E+01+
*       -5.108993882E+01               0
GRID*               2429               01.0438227282E+021.0937637277E+01+
*       -4.655464697E+01               0
GRID*               2430               01.1310486943E+029.8816773459E+00+
*       -4.202564940E+01               0
GRID*               2431               01.2185592994E+028.8163027271E+00+
*       -3.747922870E+01               0
GRID*               2432               01.3047731238E+027.1671032283E+00+
*       -3.292967896E+01               0
GRID*               2433               07.7908628433E+011.2315384337E+01+
*       -4.964291007E+01               0
GRID*               2434               08.6709003102E+011.1955317103E+01+
*       -4.509500601E+01               0
GRID*               2435               09.5468406333E+011.1281929716E+01+
*       -4.054131631E+01               0
GRID*               2436               01.0424702061E+021.0905760123E+01+
*       -3.597704211E+01               0
GRID*               2437               01.1293423561E+029.8638525800E+00+
*       -3.141833603E+01               0
GRID*               2438               01.2164380550E+028.7909742534E+00+
*       -2.684303358E+01               0
GRID*               2439               01.3022689744E+027.1482170101E+00+
*       -2.226404459E+01               0
GRID*               2440               07.7888043138E+011.2274936861E+01+
*       -3.915271037E+01               0
GRID*               2441               08.6649948236E+011.1914833937E+01+
*       -3.457581113E+01               0
GRID*               2442               09.5373420247E+011.1268191255E+01+
*       -2.999267579E+01               0
GRID*               2443               01.0411177136E+021.0873908296E+01+
*       -2.539943779E+01               0
GRID*               2444               01.1276387773E+029.8471122963E+00+
*       -2.081098116E+01               0
GRID*               2445               01.2143170551E+028.7657494902E+00+
*       -1.620683339E+01               0
GRID*               2446               01.2997648706E+027.1293291586E+00+
*       -1.159840120E+01               0
GRID*               2447               07.7867462511E+011.2234089641E+01+
*       -2.866251019E+01               0
GRID*               2448               08.6590780749E+011.1873104214E+01+
*       -2.405663455E+01               0
GRID*               2449               09.5278589218E+011.1256123303E+01+
*       -1.944401465E+01               0
GRID*               2450               01.0397651470E+021.0842089103E+01+
*       -1.482182567E+01               0
GRID*               2451               01.1259378522E+029.8314977166E+00+
*       -1.020356879E+01               0
GRID*               2452               01.2121960188E+028.7406766816E+00+
*       -5.570596087E+00               0
GRID*               2453               01.2972603628E+027.1104489025E+00+
*       -9.326966039E-01               0
GRID*               2454               07.7846890676E+011.2192844630E+01+
*       -1.817231289E+01               0
GRID*               2455               08.6531619854E+011.1831524088E+01+
*       -1.353745093E+01               0
GRID*               2456               09.5183868254E+011.1245771045E+01+
*       -8.895295827E+00               0
GRID*               2457               01.0384115180E+021.0810318065E+01+
*       -4.244132103E+00               0
GRID*               2458               01.1242379945E+029.8170687908E+00+
*       4.0403527514E-01               0
GRID*               2459               01.2100725754E+028.7158435399E+00+
*       5.0658941462E+00               0
GRID*               2460               01.2947530385E+027.0916259317E+00+
*       9.7333023449E+00               0
GRID*               2461               07.7826304570E+011.2151204550E+01+
*       -7.682101349E+00               0
GRID*               2462               08.6472430586E+011.1791171603E+01+
*       -3.018146579E+00               0
GRID*               2463               09.5088944620E+011.1237196334E+01+
*       1.6537216181E+00               0
GRID*               2464               01.0370514062E+021.0778642693E+01+
*       6.3340761050E+00               0
GRID*               2465               01.1225315131E+029.8039586945E+00+
*       1.1012500011E+01               0
GRID*               2466               01.2079377244E+028.6914452320E+00+
*       1.5703471155E+01               0
GRID*               2467               01.2922357488E+027.0730076289E+00+
*       2.0400290090E+01               0
GRID*               2468               07.7805496723E+011.2109176552E+01+
*       2.8082797063E+00               0
GRID*               2469               08.6412603033E+011.1752915242E+01+
*       7.5018217947E+00               0
GRID*               2470               09.4992523211E+011.1230517409E+01+
*       1.2204092100E+01               0
GRID*               2471               01.0356659604E+021.0747207664E+01+
*       1.6914414746E+01               0
GRID*               2472               01.1207958290E+029.7924761472E+00+
*       2.1623884236E+01               0
GRID*               2473               01.2057694957E+028.6678883996E+00+
*       2.6344244294E+01               0
GRID*               2474               01.2896937838E+027.0548976400E+00+
*       3.1069738048E+01               0
GRID*               2475               07.7783548878E+011.2066784879E+01+
*       1.3299555765E+01               0
GRID*               2476               08.6349854074E+011.1717519023E+01+
*       1.8024385432E+01               0
GRID*               2477               09.4890955060E+011.1225986993E+01+
*       2.2758950254E+01               0
GRID*               2478               01.0342104492E+021.0716368344E+01+
*       2.7500913066E+01               0
GRID*               2479               01.1189850273E+029.7832022151E+00+
*       3.2242545451E+01               0
GRID*               2480               01.2035291924E+028.6458802163E+00+
*       3.6992084238E+01               0
GRID*               2481               01.2871042417E+027.0377693351E+00+
*       4.1744032403E+01               0
GRID*               2482               07.7757538528E+011.2024102092E+01+
*       2.3794139859E+01               0
GRID*               2483               08.6278354335E+011.1685728084E+01+
*       2.8554552280E+01               0
GRID*               2484               09.4776742896E+011.1224083892E+01+
*       3.3324973818E+01               0
GRID*               2485               01.0326070250E+021.0686830630E+01+
*       3.8100856317E+01               0
GRID*               2486               01.1170290919E+029.7769961946E+00+
*       4.2875404416E+01               0
GRID*               2487               01.2011639541E+028.6264496056E+00+
*       4.7652585985E+01               0
GRID*               2488               01.2844385049E+027.0222147866E+00+
*       5.2426344059E+01               0
GRID*               2489               07.7719593814E+011.1981319872E+01+
*       3.4298630507E+01               0
GRID*               2490               08.6186458042E+011.1658295047E+01+
*       3.9102415375E+01               0
GRID*               2491               09.4638039766E+011.1225558881E+01+
*       4.3913012481E+01               0
GRID*               2492               01.0307515294E+021.0659804970E+01+
*       4.8724402492E+01               0
GRID*               2493               01.1148435884E+029.7748785239E+00+
*       5.3531313233E+01               0
GRID*               2494               01.1986140378E+028.6109039838E+00+
*       5.8332706494E+01               0
GRID*               2495               01.2816663576E+027.0088589276E+00+
*       6.3120358428E+01               0
GRID*               4002               0-3.123565197E+002.5326520205E-02+
*       -4.303391337E+00               0
GRID*               3651               01.2957550712E+005.7761194266E+00+
*       -1.751895510E+00               0
GRID*               3652               08.0902192183E+008.0348563093E+00+
*       2.1708902272E+00               0
GRID*               4003               0-6.324246216E+01-2.183076441E-01+
*       -1.686128174E+03               0
GRID*               6805               0-4.871596931E+01-3.217921806E+00+
*       -1.686128174E+03               0
GRID*               3480               0-6.287770844E+01-2.166816900E-01+
*       -1.675920159E+03               0
GRID*               3481               0-6.251295473E+01-2.150557358E-01+
*       -1.665712144E+03               0
GRID*               3482               0-6.214820101E+01-2.134297817E-01+
*       -1.655504129E+03               0
GRID*               3483               0-6.178344730E+01-2.118038276E-01+
*       -1.645296115E+03               0
GRID*               3484               0-6.141869358E+01-2.101778734E-01+
*       -1.635088100E+03               0
GRID*               3485               0-6.105393987E+01-2.085519193E-01+
*       -1.624880085E+03               0
GRID*               3486               0-6.068918616E+01-2.069259651E-01+
*       -1.614672070E+03               0
GRID*               3487               0-6.032443244E+01-2.053000110E-01+
*       -1.604464055E+03               0
GRID*               3488               0-5.995967873E+01-2.036740568E-01+
*       -1.594256041E+03               0
GRID*               3489               0-5.959492501E+01-2.020481027E-01+
*       -1.584048026E+03               0
GRID*               3490               0-5.923017130E+01-2.004221486E-01+
*       -1.573840011E+03               0
GRID*               3491               0-5.886541758E+01-1.987961944E-01+
*       -1.563631996E+03               0
GRID*               3492               0-5.850066387E+01-1.971702403E-01+
*       -1.553423981E+03               0
GRID*               3493               0-5.813591015E+01-1.955442861E-01+
*       -1.543215967E+03               0
GRID*               3494               0-5.777115644E+01-1.939183320E-01+
*       -1.533007952E+03               0
GRID*               3495               0-5.740640272E+01-1.922923778E-01+
*       -1.522799937E+03               0
GRID*               3496               0-5.704164901E+01-1.906664237E-01+
*       -1.512591922E+03               0
GRID*               3497               0-5.667689529E+01-1.890404696E-01+
*       -1.502383908E+03               0
GRID*               3498               0-5.631214158E+01-1.874145154E-01+
*       -1.492175893E+03               0
GRID*               3499               0-5.594738786E+01-1.857885613E-01+
*       -1.481967878E+03               0
GRID*               3500               0-5.558263415E+01-1.841626071E-01+
*       -1.471759863E+03               0
GRID*               3501               0-5.521788044E+01-1.825366530E-01+
*       -1.461551848E+03               0
GRID*               3502               0-5.485312672E+01-1.809106988E-01+
*       -1.451343834E+03               0
GRID*               3503               0-5.448837301E+01-1.792847447E-01+
*       -1.441135819E+03               0
GRID*               3504               0-5.412361929E+01-1.776587906E-01+
*       -1.430927804E+03               0
GRID*               3505               0-5.375886558E+01-1.760328364E-01+
*       -1.420719789E+03               0
GRID*               3506               0-5.339411186E+01-1.744068823E-01+
*       -1.410511774E+03               0
GRID*               3507               0-5.302935815E+01-1.727809281E-01+
*       -1.400303760E+03               0
GRID*               3508               0-5.266460443E+01-1.711549740E-01+
*       -1.390095745E+03               0
GRID*               3509               0-5.229985072E+01-1.695290198E-01+
*       -1.379887730E+03               0
GRID*               3510               0-5.193509700E+01-1.679030657E-01+
*       -1.369679715E+03               0
GRID*               3511               0-5.157034329E+01-1.662771116E-01+
*       -1.359471700E+03               0
GRID*               3512               0-5.120558957E+01-1.646511574E-01+
*       -1.349263686E+03               0
GRID*               3513               0-5.084083586E+01-1.630252033E-01+
*       -1.339055671E+03               0
GRID*               3514               0-5.047608214E+01-1.613992491E-01+
*       -1.328847656E+03               0
GRID*               3515               0-5.011132843E+01-1.597732950E-01+
*       -1.318639641E+03               0
GRID*               3516               0-4.974657472E+01-1.581473408E-01+
*       -1.308431626E+03               0
GRID*               3517               0-4.938182100E+01-1.565213867E-01+
*       -1.298223612E+03               0
GRID*               3518               0-4.901706729E+01-1.548954326E-01+
*       -1.288015597E+03               0
GRID*               3519               0-4.865231357E+01-1.532694784E-01+
*       -1.277807582E+03               0
GRID*               3520               0-4.828784292E+01-1.517500997E-01+
*       -1.267599557E+03               0
GRID*               3521               0-4.792361488E+01-1.503220624E-01+
*       -1.257391523E+03               0
GRID*               3522               0-4.755938683E+01-1.488940251E-01+
*       -1.247183490E+03               0
GRID*               3523               0-4.719515878E+01-1.474659879E-01+
*       -1.236975456E+03               0
GRID*               3524               0-4.683093074E+01-1.460379506E-01+
*       -1.226767423E+03               0
GRID*               3525               0-4.646670269E+01-1.446099134E-01+
*       -1.216559389E+03               0
GRID*               3526               0-4.610247464E+01-1.431818761E-01+
*       -1.206351356E+03               0
GRID*               3527               0-4.573824660E+01-1.417538389E-01+
*       -1.196143322E+03               0
GRID*               3528               0-4.537401855E+01-1.403258016E-01+
*       -1.185935288E+03               0
GRID*               3529               0-4.500979051E+01-1.388977643E-01+
*       -1.175727255E+03               0
GRID*               3530               0-4.464556246E+01-1.374697271E-01+
*       -1.165519221E+03               0
GRID*               3531               0-4.428133441E+01-1.360416898E-01+
*       -1.155311188E+03               0
GRID*               3532               0-4.391710637E+01-1.346136526E-01+
*       -1.145103154E+03               0
GRID*               3533               0-4.355287832E+01-1.331856153E-01+
*       -1.134895120E+03               0
GRID*               3534               0-4.318865028E+01-1.317575781E-01+
*       -1.124687087E+03               0
GRID*               3535               0-4.282442223E+01-1.303295408E-01+
*       -1.114479053E+03               0
GRID*               3536               0-4.246019418E+01-1.289015035E-01+
*       -1.104271020E+03               0
GRID*               3537               0-4.209596614E+01-1.274734663E-01+
*       -1.094062986E+03               0
GRID*               3538               0-4.173173809E+01-1.260454290E-01+
*       -1.083854952E+03               0
GRID*               3539               0-4.136751004E+01-1.246173918E-01+
*       -1.073646919E+03               0
GRID*               3540               0-4.100328200E+01-1.231893545E-01+
*       -1.063438885E+03               0
GRID*               3541               0-4.063905395E+01-1.217613173E-01+
*       -1.053230852E+03               0
GRID*               3542               0-4.027482591E+01-1.203332800E-01+
*       -1.043022818E+03               0
GRID*               3543               0-3.991059786E+01-1.189052427E-01+
*       -1.032814784E+03               0
GRID*               3544               0-3.954636981E+01-1.174772055E-01+
*       -1.022606751E+03               0
GRID*               3545               0-3.918214177E+01-1.160491682E-01+
*       -1.012398717E+03               0
GRID*               3546               0-3.881791372E+01-1.146211310E-01+
*       -1.002190684E+03               0
GRID*               3547               0-3.845368568E+01-1.131930937E-01+
*       -9.919826500E+02               0
GRID*               3548               0-3.808945763E+01-1.117650565E-01+
*       -9.817746164E+02               0
GRID*               3549               0-3.772522958E+01-1.103370192E-01+
*       -9.715665828E+02               0
GRID*               3550               0-3.736100154E+01-1.089089819E-01+
*       -9.613585492E+02               0
GRID*               3551               0-3.699677349E+01-1.074809447E-01+
*       -9.511505157E+02               0
GRID*               3552               0-3.663254544E+01-1.060529074E-01+
*       -9.409424821E+02               0
GRID*               3553               0-3.626831740E+01-1.046248702E-01+
*       -9.307344485E+02               0
GRID*               3554               0-3.590408935E+01-1.031968329E-01+
*       -9.205264149E+02               0
GRID*               3555               0-3.553986131E+01-1.017687957E-01+
*       -9.103183813E+02               0
GRID*               3556               0-3.517563326E+01-1.003407584E-01+
*       -9.001103477E+02               0
GRID*               3557               0-3.481140521E+01-9.891272115E-02+
*       -8.899023141E+02               0
GRID*               3558               0-3.444717717E+01-9.748468389E-02+
*       -8.796942805E+02               0
GRID*               3559               0-3.408294912E+01-9.605664663E-02+
*       -8.694862469E+02               0
GRID*               3560               0-3.371872107E+01-9.462860938E-02+
*       -8.592782133E+02               0
GRID*               3561               0-3.335449303E+01-9.320057212E-02+
*       -8.490701797E+02               0
GRID*               3562               0-3.299026498E+01-9.177253486E-02+
*       -8.388621461E+02               0
GRID*               3563               0-3.262603694E+01-9.034449761E-02+
*       -8.286541125E+02               0
GRID*               3564               0-3.226180889E+01-8.891646035E-02+
*       -8.184460789E+02               0
GRID*               3565               0-3.189758084E+01-8.748842309E-02+
*       -8.082380453E+02               0
GRID*               3566               0-3.153335280E+01-8.606038583E-02+
*       -7.980300117E+02               0
GRID*               3567               0-3.116912475E+01-8.463234858E-02+
*       -7.878219781E+02               0
GRID*               3568               0-3.080489671E+01-8.320431132E-02+
*       -7.776139445E+02               0
GRID*               3569               0-3.044066866E+01-8.177627406E-02+
*       -7.674059109E+02               0
GRID*               3570               0-3.007644061E+01-8.034823681E-02+
*       -7.571978774E+02               0
GRID*               3571               0-2.971221257E+01-7.892019955E-02+
*       -7.469898438E+02               0
GRID*               3572               0-2.934798452E+01-7.749216229E-02+
*       -7.367818102E+02               0
GRID*               3573               0-2.898375647E+01-7.606412504E-02+
*       -7.265737766E+02               0
GRID*               3574               0-2.861952843E+01-7.463608778E-02+
*       -7.163657430E+02               0
GRID*               3575               0-2.825530038E+01-7.320805052E-02+
*       -7.061577094E+02               0
GRID*               3576               0-2.789107234E+01-7.178001327E-02+
*       -6.959496758E+02               0
GRID*               3577               0-2.752684429E+01-7.035197601E-02+
*       -6.857416422E+02               0
GRID*               3578               0-2.716261624E+01-6.892393875E-02+
*       -6.755336086E+02               0
GRID*               3579               0-2.679838820E+01-6.749590149E-02+
*       -6.653255750E+02               0
GRID*               3580               0-2.643416015E+01-6.606786424E-02+
*       -6.551175414E+02               0
GRID*               3581               0-2.606993211E+01-6.463982698E-02+
*       -6.449095078E+02               0
GRID*               3582               0-2.570570406E+01-6.321178972E-02+
*       -6.347014742E+02               0
GRID*               3583               0-2.534147601E+01-6.178375247E-02+
*       -6.244934406E+02               0
GRID*               3584               0-2.497724797E+01-6.035571521E-02+
*       -6.142854070E+02               0
GRID*               3585               0-2.461301992E+01-5.892767795E-02+
*       -6.040773734E+02               0
GRID*               3586               0-2.424879187E+01-5.749964070E-02+
*       -5.938693398E+02               0
GRID*               3587               0-2.388456383E+01-5.607160344E-02+
*       -5.836613062E+02               0
GRID*               3588               0-2.352033578E+01-5.464356618E-02+
*       -5.734532726E+02               0
GRID*               3589               0-2.315610774E+01-5.321552893E-02+
*       -5.632452391E+02               0
GRID*               3590               0-2.279187969E+01-5.178749167E-02+
*       -5.530372055E+02               0
GRID*               3591               0-2.242765164E+01-5.035945441E-02+
*       -5.428291719E+02               0
GRID*               3592               0-2.206342360E+01-4.893141715E-02+
*       -5.326211383E+02               0
GRID*               3593               0-2.169919555E+01-4.750337990E-02+
*       -5.224131047E+02               0
GRID*               3594               0-2.133496751E+01-4.607534264E-02+
*       -5.122050711E+02               0
GRID*               3595               0-2.097073946E+01-4.464730538E-02+
*       -5.019970375E+02               0
GRID*               3596               0-2.060651141E+01-4.321926813E-02+
*       -4.917890039E+02               0
GRID*               3597               0-2.024228337E+01-4.179123087E-02+
*       -4.815809703E+02               0
GRID*               3598               0-1.987805532E+01-4.036319361E-02+
*       -4.713729367E+02               0
GRID*               3599               0-1.951382727E+01-3.893515636E-02+
*       -4.611649031E+02               0
GRID*               3600               0-1.914959923E+01-3.750711910E-02+
*       -4.509568695E+02               0
GRID*               3601               0-1.878537118E+01-3.607908184E-02+
*       -4.407488359E+02               0
GRID*               3602               0-1.842114314E+01-3.465104459E-02+
*       -4.305408023E+02               0
GRID*               3603               0-1.805691509E+01-3.322300733E-02+
*       -4.203327687E+02               0
GRID*               3604               0-1.769268704E+01-3.179497007E-02+
*       -4.101247351E+02               0
GRID*               3605               0-1.732845900E+01-3.036693282E-02+
*       -3.999167015E+02               0
GRID*               3606               0-1.696423095E+01-2.893889556E-02+
*       -3.897086679E+02               0
GRID*               3607               0-1.660000291E+01-2.751085830E-02+
*       -3.795006343E+02               0
GRID*               3608               0-1.623577486E+01-2.608282104E-02+
*       -3.692926007E+02               0
GRID*               3609               0-1.587154681E+01-2.465478379E-02+
*       -3.590845672E+02               0
GRID*               3610               0-1.550731877E+01-2.322674653E-02+
*       -3.488765336E+02               0
GRID*               3611               0-1.514309072E+01-2.179870927E-02+
*       -3.386685000E+02               0
GRID*               3612               0-1.477886267E+01-2.037067202E-02+
*       -3.284604664E+02               0
GRID*               3613               0-1.441463463E+01-1.894263476E-02+
*       -3.182524328E+02               0
GRID*               3614               0-1.405040658E+01-1.751459750E-02+
*       -3.080443992E+02               0
GRID*               3615               0-1.368617854E+01-1.608656025E-02+
*       -2.978363656E+02               0
GRID*               3616               0-1.332195049E+01-1.465852299E-02+
*       -2.876283320E+02               0
GRID*               3617               0-1.295772244E+01-1.323048573E-02+
*       -2.774202984E+02               0
GRID*               3618               0-1.259349440E+01-1.180244848E-02+
*       -2.672122648E+02               0
GRID*               3619               0-1.222926635E+01-1.037441122E-02+
*       -2.570042312E+02               0
GRID*               3620               0-1.186503830E+01-8.946373961E-03+
*       -2.467961976E+02               0
GRID*               3621               0-1.150081026E+01-7.518336704E-03+
*       -2.365881640E+02               0
GRID*               3622               0-1.113658221E+01-6.090299448E-03+
*       -2.263801304E+02               0
GRID*               3623               0-1.077235417E+01-4.662262191E-03+
*       -2.161720968E+02               0
GRID*               3624               0-1.040812612E+01-3.234224934E-03+
*       -2.059640632E+02               0
GRID*               3625               0-1.004389807E+01-1.806187677E-03+
*       -1.957560296E+02               0
GRID*               3626               0-9.679670028E+00-3.781504199E-04+
*       -1.855479960E+02               0
GRID*               3627               0-9.315441982E+001.0498868370E-03+
*       -1.753399624E+02               0
GRID*               3628               0-8.951213936E+002.4779240939E-03+
*       -1.651319289E+02               0
GRID*               3629               0-8.586985889E+003.9059613508E-03+
*       -1.549238953E+02               0
GRID*               3630               0-8.222757843E+005.3339986078E-03+
*       -1.447158617E+02               0
GRID*               3631               0-7.858529797E+006.7620358647E-03+
*       -1.345078281E+02               0
GRID*               3632               0-7.494301751E+008.1900731216E-03+
*       -1.242997945E+02               0
GRID*               3633               0-7.130073705E+009.6181103785E-03+
*       -1.140917609E+02               0
GRID*               3634               0-6.765845659E+001.1046147635E-02+
*       -1.038837273E+02               0
GRID*               3635               0-6.401617612E+001.2474184892E-02+
*       -9.367569369E+01               0
GRID*               3636               0-6.037389566E+001.3902222149E-02+
*       -8.346766010E+01               0
GRID*               3637               0-5.673161520E+001.5330259406E-02+
*       -7.325962650E+01               0
GRID*               3638               0-5.308933474E+001.6758296663E-02+
*       -6.305159291E+01               0
GRID*               3639               0-4.944705428E+001.8186333920E-02+
*       -5.284355931E+01               0
GRID*               3640               0-4.580477382E+001.9614371177E-02+
*       -4.263552572E+01               0
GRID*               3641               0-4.216249335E+002.1042408434E-02+
*       -3.242749212E+01               0
GRID*               3642               0-3.852021289E+002.2470445691E-02+
*       -2.221945853E+01               0
GRID*               3643               0-3.487793243E+002.3898482948E-02+
*       -1.201142493E+01               0
GRID*                661               02.2247915649E+02-1.953354627E-01+
*       -1.686128174E+03               0
GRID*                495               02.0987711659E+022.2739046942E+00+
*       -1.686128174E+03               0
GRID*                496               01.9670586234E+024.1020625050E+00+
*       -1.686128174E+03               0
GRID*                662               01.5885832214E+02-1.534631848E-01+
*       8.9216896057E+01               0
GRID*               4503               01.5099585390E+02-1.504153423E+00+
*       8.4677507085E+01               0
GRID*               4504               01.4281935714E+02-1.604493125E+00+
*       7.9956798618E+01               0
GRID*               4505               01.3464432601E+02-1.744512148E+00+
*       7.5236936006E+01               0
GRID*                329               01.5924388403E+02-1.537140794E-01+
*       8.0942076774E+01               0
GRID*                330               01.5962944592E+02-1.539649740E-01+
*       7.0167257492E+01               0
GRID*                331               01.6001500781E+02-1.542158685E-01+
*       5.9392438209E+01               0
GRID*                332               01.6040056969E+02-1.544667631E-01+
*       4.8617618926E+01               0
GRID*                333               01.6078613158E+02-1.547176576E-01+
*       3.7842799643E+01               0
GRID*                334               01.6117169347E+02-1.549685522E-01+
*       2.7067980361E+01               0
GRID*                335               01.6155725536E+02-1.552194467E-01+
*       1.6293161078E+01               0
GRID*                336               01.6194281725E+02-1.554703413E-01+
*       5.5183417953E+00               0
GRID*                337               01.6232837913E+02-1.557212359E-01+
*       -5.256477487E+00               0
GRID*                338               01.6271394102E+02-1.559721304E-01+
*       -1.603129677E+01               0
GRID*                339               01.6309950291E+02-1.562230250E-01+
*       -2.680611605E+01               0
GRID*                340               01.6348506480E+02-1.564739195E-01+
*       -3.758093534E+01               0
GRID*                341               01.6387062668E+02-1.567248141E-01+
*       -4.835575462E+01               0
GRID*                342               01.6425618857E+02-1.569757087E-01+
*       -5.913057390E+01               0
GRID*                343               01.6464175046E+02-1.572266032E-01+
*       -6.990539318E+01               0
GRID*                344               01.6502731235E+02-1.574774978E-01+
*       -8.068021247E+01               0
GRID*                345               01.6541287424E+02-1.577283923E-01+
*       -9.145503175E+01               0
GRID*                346               01.6579843612E+02-1.579792869E-01+
*       -1.022298510E+02               0
GRID*                347               01.6618399801E+02-1.582301814E-01+
*       -1.130046703E+02               0
GRID*                348               01.6656955990E+02-1.584810760E-01+
*       -1.237794896E+02               0
GRID*                349               01.6695512179E+02-1.587319706E-01+
*       -1.345543089E+02               0
GRID*                350               01.6734068367E+02-1.589828651E-01+
*       -1.453291282E+02               0
GRID*                351               01.6772624556E+02-1.592337597E-01+
*       -1.561039474E+02               0
GRID*                352               01.6811180745E+02-1.594846542E-01+
*       -1.668787667E+02               0
GRID*                353               01.6849736934E+02-1.597355488E-01+
*       -1.776535860E+02               0
GRID*                354               01.6888293122E+02-1.599864434E-01+
*       -1.884284053E+02               0
GRID*                355               01.6926849311E+02-1.602373379E-01+
*       -1.992032246E+02               0
GRID*                356               01.6965405500E+02-1.604882325E-01+
*       -2.099780439E+02               0
GRID*                357               01.7003961689E+02-1.607391270E-01+
*       -2.207528631E+02               0
GRID*                358               01.7042517878E+02-1.609900216E-01+
*       -2.315276824E+02               0
GRID*                359               01.7081074066E+02-1.612409162E-01+
*       -2.423025017E+02               0
GRID*                360               01.7119630255E+02-1.614918107E-01+
*       -2.530773210E+02               0
GRID*                361               01.7158186444E+02-1.617427053E-01+
*       -2.638521403E+02               0
GRID*                362               01.7196742633E+02-1.619935998E-01+
*       -2.746269596E+02               0
GRID*                363               01.7235298821E+02-1.622444944E-01+
*       -2.854017788E+02               0
GRID*                364               01.7273855010E+02-1.624953889E-01+
*       -2.961765981E+02               0
GRID*                365               01.7312411199E+02-1.627462835E-01+
*       -3.069514174E+02               0
GRID*                366               01.7350967388E+02-1.629971781E-01+
*       -3.177262367E+02               0
GRID*                367               01.7389523577E+02-1.632480726E-01+
*       -3.285010560E+02               0
GRID*                368               01.7428079765E+02-1.634989672E-01+
*       -3.392758753E+02               0
GRID*                369               01.7466635954E+02-1.637498617E-01+
*       -3.500506945E+02               0
GRID*                370               01.7505192143E+02-1.640007563E-01+
*       -3.608255138E+02               0
GRID*                371               01.7543748332E+02-1.642516509E-01+
*       -3.716003331E+02               0
GRID*                372               01.7582304520E+02-1.645025454E-01+
*       -3.823751524E+02               0
GRID*                373               01.7620860709E+02-1.647534400E-01+
*       -3.931499717E+02               0
GRID*                374               01.7659416898E+02-1.650043345E-01+
*       -4.039247909E+02               0
GRID*                375               01.7697973087E+02-1.652552291E-01+
*       -4.146996102E+02               0
GRID*                376               01.7736529276E+02-1.655061236E-01+
*       -4.254744295E+02               0
GRID*                377               01.7775085464E+02-1.657570182E-01+
*       -4.362492488E+02               0
GRID*                378               01.7813641653E+02-1.660079128E-01+
*       -4.470240681E+02               0
GRID*                379               01.7852197842E+02-1.662588073E-01+
*       -4.577988874E+02               0
GRID*                380               01.7890754031E+02-1.665097019E-01+
*       -4.685737066E+02               0
GRID*                381               01.7929310219E+02-1.667605964E-01+
*       -4.793485259E+02               0
GRID*                382               01.7967866408E+02-1.670114910E-01+
*       -4.901233452E+02               0
GRID*                383               01.8006422597E+02-1.672623856E-01+
*       -5.008981645E+02               0
GRID*                384               01.8044978786E+02-1.675132801E-01+
*       -5.116729838E+02               0
GRID*                385               01.8083534974E+02-1.677641747E-01+
*       -5.224478031E+02               0
GRID*                386               01.8122091163E+02-1.680150692E-01+
*       -5.332226223E+02               0
GRID*                387               01.8160647352E+02-1.682659638E-01+
*       -5.439974416E+02               0
GRID*                388               01.8199203541E+02-1.685168584E-01+
*       -5.547722609E+02               0
GRID*                389               01.8237759730E+02-1.687677529E-01+
*       -5.655470802E+02               0
GRID*                390               01.8276315918E+02-1.690186475E-01+
*       -5.763218995E+02               0
GRID*                391               01.8314872107E+02-1.692695420E-01+
*       -5.870967188E+02               0
GRID*                392               01.8353428296E+02-1.695204366E-01+
*       -5.978715380E+02               0
GRID*                393               01.8391984485E+02-1.697713311E-01+
*       -6.086463573E+02               0
GRID*                394               01.8430540673E+02-1.700222257E-01+
*       -6.194211766E+02               0
GRID*                395               01.8469096862E+02-1.702731203E-01+
*       -6.301959959E+02               0
GRID*                396               01.8507653051E+02-1.705240148E-01+
*       -6.409708152E+02               0
GRID*                397               01.8546209240E+02-1.707749094E-01+
*       -6.517456345E+02               0
GRID*                398               01.8584765429E+02-1.710258039E-01+
*       -6.625204537E+02               0
GRID*                399               01.8623321617E+02-1.712766985E-01+
*       -6.732952730E+02               0
GRID*                400               01.8661877806E+02-1.715275931E-01+
*       -6.840700923E+02               0
GRID*                401               01.8700433995E+02-1.717784876E-01+
*       -6.948449116E+02               0
GRID*                402               01.8738990184E+02-1.720293822E-01+
*       -7.056197309E+02               0
GRID*                403               01.8777546372E+02-1.722802767E-01+
*       -7.163945501E+02               0
GRID*                404               01.8816102561E+02-1.725311713E-01+
*       -7.271693694E+02               0
GRID*                405               01.8854658750E+02-1.727820658E-01+
*       -7.379441887E+02               0
GRID*                406               01.8893214939E+02-1.730329604E-01+
*       -7.487190080E+02               0
GRID*                407               01.8931771127E+02-1.732838550E-01+
*       -7.594938273E+02               0
GRID*                408               01.8970327316E+02-1.735347495E-01+
*       -7.702686466E+02               0
GRID*                409               01.9008883505E+02-1.737856441E-01+
*       -7.810434658E+02               0
GRID*                410               01.9047439694E+02-1.740365386E-01+
*       -7.918182851E+02               0
GRID*                411               01.9085995883E+02-1.742874332E-01+
*       -8.025931044E+02               0
GRID*                412               01.9124552071E+02-1.745383278E-01+
*       -8.133679237E+02               0
GRID*                413               01.9163108260E+02-1.747892223E-01+
*       -8.241427430E+02               0
GRID*                414               01.9201664449E+02-1.750401169E-01+
*       -8.349175623E+02               0
GRID*                415               01.9240224024E+02-1.752961588E-01+
*       -8.456923803E+02               0
GRID*                416               01.9278784173E+02-1.755530730E-01+
*       -8.564671982E+02               0
GRID*                417               01.9317344322E+02-1.758099871E-01+
*       -8.672420161E+02               0
GRID*                418               01.9355904471E+02-1.760669013E-01+
*       -8.780168339E+02               0
GRID*                419               01.9394464620E+02-1.763238154E-01+
*       -8.887916518E+02               0
GRID*                420               01.9433024769E+02-1.765807296E-01+
*       -8.995664697E+02               0
GRID*                421               01.9471584918E+02-1.768376437E-01+
*       -9.103412875E+02               0
GRID*                422               01.9510145067E+02-1.770945579E-01+
*       -9.211161054E+02               0
GRID*                423               01.9548705216E+02-1.773514720E-01+
*       -9.318909233E+02               0
GRID*                424               01.9587265366E+02-1.776083862E-01+
*       -9.426657411E+02               0
GRID*                425               01.9625825515E+02-1.778653004E-01+
*       -9.534405590E+02               0
GRID*                426               01.9664385664E+02-1.781222145E-01+
*       -9.642153768E+02               0
GRID*                427               01.9702945813E+02-1.783791287E-01+
*       -9.749901947E+02               0
GRID*                428               01.9741505962E+02-1.786360428E-01+
*       -9.857650126E+02               0
GRID*                429               01.9780066111E+02-1.788929570E-01+
*       -9.965398304E+02               0
GRID*                430               01.9818626260E+02-1.791498711E-01+
*       -1.007314648E+03               0
GRID*                431               01.9857186409E+02-1.794067853E-01+
*       -1.018089466E+03               0
GRID*                432               01.9895746558E+02-1.796636994E-01+
*       -1.028864284E+03               0
GRID*                433               01.9934306707E+02-1.799206136E-01+
*       -1.039639102E+03               0
GRID*                434               01.9972866856E+02-1.801775277E-01+
*       -1.050413920E+03               0
GRID*                435               02.0011427005E+02-1.804344419E-01+
*       -1.061188738E+03               0
GRID*                436               02.0049987154E+02-1.806913560E-01+
*       -1.071963556E+03               0
GRID*                437               02.0088547303E+02-1.809482702E-01+
*       -1.082738373E+03               0
GRID*                438               02.0127107452E+02-1.812051843E-01+
*       -1.093513191E+03               0
GRID*                439               02.0165667601E+02-1.814620985E-01+
*       -1.104288009E+03               0
GRID*                440               02.0204227750E+02-1.817190126E-01+
*       -1.115062827E+03               0
GRID*                441               02.0242787899E+02-1.819759268E-01+
*       -1.125837645E+03               0
GRID*                442               02.0281348048E+02-1.822328409E-01+
*       -1.136612463E+03               0
GRID*                443               02.0319908197E+02-1.824897551E-01+
*       -1.147387281E+03               0
GRID*                444               02.0358468346E+02-1.827466692E-01+
*       -1.158162098E+03               0
GRID*                445               02.0397028495E+02-1.830035834E-01+
*       -1.168936916E+03               0
GRID*                446               02.0435588644E+02-1.832604975E-01+
*       -1.179711734E+03               0
GRID*                447               02.0474148793E+02-1.835174117E-01+
*       -1.190486552E+03               0
GRID*                448               02.0512708943E+02-1.837743258E-01+
*       -1.201261370E+03               0
GRID*                449               02.0551269092E+02-1.840312400E-01+
*       -1.212036188E+03               0
GRID*                450               02.0589829241E+02-1.842881542E-01+
*       -1.222811006E+03               0
GRID*                451               02.0628389390E+02-1.845450683E-01+
*       -1.233585823E+03               0
GRID*                452               02.0666949539E+02-1.848019825E-01+
*       -1.244360641E+03               0
GRID*                453               02.0705509688E+02-1.850588966E-01+
*       -1.255135459E+03               0
GRID*                454               02.0744069837E+02-1.853158108E-01+
*       -1.265910277E+03               0
GRID*                455               02.0782629986E+02-1.855727249E-01+
*       -1.276685095E+03               0
GRID*                456               02.0821190135E+02-1.858296391E-01+
*       -1.287459913E+03               0
GRID*                457               02.0859750284E+02-1.860865532E-01+
*       -1.298234731E+03               0
GRID*                458               02.0898310433E+02-1.863434674E-01+
*       -1.309009549E+03               0
GRID*                459               02.0936870582E+02-1.866003815E-01+
*       -1.319784366E+03               0
GRID*                460               02.0975430731E+02-1.868572957E-01+
*       -1.330559184E+03               0
GRID*                461               02.1013990880E+02-1.871142098E-01+
*       -1.341334002E+03               0
GRID*                462               02.1052551029E+02-1.873711240E-01+
*       -1.352108820E+03               0
GRID*                463               02.1091111178E+02-1.876280381E-01+
*       -1.362883638E+03               0
GRID*                464               02.1129671327E+02-1.878849523E-01+
*       -1.373658456E+03               0
GRID*                465               02.1168231476E+02-1.881418664E-01+
*       -1.384433274E+03               0
GRID*                466               02.1206791625E+02-1.883987806E-01+
*       -1.395208091E+03               0
GRID*                467               02.1245351774E+02-1.886556947E-01+
*       -1.405982909E+03               0
GRID*                468               02.1283911923E+02-1.889126089E-01+
*       -1.416757727E+03               0
GRID*                469               02.1322472072E+02-1.891695230E-01+
*       -1.427532545E+03               0
GRID*                470               02.1361032221E+02-1.894264372E-01+
*       -1.438307363E+03               0
GRID*                471               02.1399592370E+02-1.896833513E-01+
*       -1.449082181E+03               0
GRID*                472               02.1438152520E+02-1.899402655E-01+
*       -1.459856999E+03               0
GRID*                473               02.1476712669E+02-1.901971796E-01+
*       -1.470631817E+03               0
GRID*                474               02.1515272818E+02-1.904540938E-01+
*       -1.481406634E+03               0
GRID*                475               02.1553832967E+02-1.907110080E-01+
*       -1.492181452E+03               0
GRID*                476               02.1592393116E+02-1.909679221E-01+
*       -1.502956270E+03               0
GRID*                477               02.1630953265E+02-1.912248363E-01+
*       -1.513731088E+03               0
GRID*                478               02.1669513414E+02-1.914817504E-01+
*       -1.524505906E+03               0
GRID*                479               02.1708073563E+02-1.917386646E-01+
*       -1.535280724E+03               0
GRID*                480               02.1746633712E+02-1.919955787E-01+
*       -1.546055542E+03               0
GRID*                481               02.1785193861E+02-1.922524929E-01+
*       -1.556830359E+03               0
GRID*                482               02.1823754010E+02-1.925094070E-01+
*       -1.567605177E+03               0
GRID*                483               02.1862314159E+02-1.927663212E-01+
*       -1.578379995E+03               0
GRID*                484               02.1900874308E+02-1.930232353E-01+
*       -1.589154813E+03               0
GRID*                485               02.1939434457E+02-1.932801495E-01+
*       -1.599929631E+03               0
GRID*                486               02.1977994606E+02-1.935370636E-01+
*       -1.610704449E+03               0
GRID*                487               02.2016554755E+02-1.937939778E-01+
*       -1.621479267E+03               0
GRID*                488               02.2055114904E+02-1.940508919E-01+
*       -1.632254085E+03               0
GRID*                489               02.2093675053E+02-1.943078061E-01+
*       -1.643028902E+03               0
GRID*                490               02.2132235202E+02-1.945647202E-01+
*       -1.653803720E+03               0
GRID*                491               02.2170795351E+02-1.948216344E-01+
*       -1.664578538E+03               0
GRID*                492               02.2209355500E+02-1.950785485E-01+
*       -1.675353356E+03               0
GRID*               5984               01.6032990118E+02-3.945679906E+00+
*       -1.675498036E+03               0
GRID*               5985               01.4309824210E+02-6.114165182E+00+
*       -1.675528872E+03               0
GRID*               5986               01.2583472390E+02-7.922821107E+00+
*       -1.675560350E+03               0
GRID*               5987               01.0849042286E+02-8.899201906E+00+
*       -1.675592964E+03               0
GRID*               5988               09.1126644486E+01-9.415713347E+00+
*       -1.675625777E+03               0
GRID*               5989               01.6006693190E+02-3.943514578E+00+
*       -1.664868108E+03               0
GRID*               5990               01.4288561684E+02-6.110502433E+00+
*       -1.664930284E+03               0
GRID*               5991               01.2567098311E+02-7.907339908E+00+
*       -1.664993526E+03               0
GRID*               5992               01.0837709485E+02-8.880963704E+00+
*       -1.665058448E+03               0
GRID*               5993               09.1063874994E+01-9.395418335E+00+
*       -1.665123611E+03               0
GRID*               5994               01.5980442322E+02-3.941211421E+00+
*       -1.654238334E+03               0
GRID*               5995               01.4267351210E+02-6.106540650E+00+
*       -1.654332145E+03               0
GRID*               5996               01.2550773982E+02-7.891914601E+00+
*       -1.654427253E+03               0
GRID*               5997               01.0826413028E+02-8.862795657E+00+
*       -1.654524308E+03               0
GRID*               5998               09.1001292507E+01-9.374941977E+00+
*       -1.654621667E+03               0
GRID*               5999               01.5954218660E+02-3.938793910E+00+
*       -1.643608684E+03               0
GRID*               6000               01.4246174071E+02-6.102316719E+00+
*       -1.643734299E+03               0
GRID*               6001               01.2534484594E+02-7.876553152E+00+
*       -1.643861332E+03               0
GRID*               6002               01.0815142714E+02-8.844693740E+00+
*       -1.643990434E+03               0
GRID*               6003               09.0938843343E+01-9.354292604E+00+
*       -1.644119876E+03               0
GRID*               6004               01.5928011288E+02-3.936277344E+00+
*       -1.632979125E+03               0
GRID*               6005               01.4225017625E+02-6.097858402E+00+
*       -1.633136642E+03               0
GRID*               6006               01.2518219264E+02-7.861260729E+00+
*       -1.633295639E+03               0
GRID*               6007               01.0803890804E+02-8.826653896E+00+
*       -1.633456742E+03               0
GRID*               6008               09.0876487286E+01-9.333478038E+00+
*       -1.633618190E+03               0
GRID*               6009               01.5901813743E+02-3.933672391E+00+
*       -1.622349628E+03               0
GRID*               6010               01.4203873562E+02-6.093186877E+00+
*       -1.622539107E+03               0
GRID*               6011               01.2501970307E+02-7.846040203E+00+
*       -1.622730091E+03               0
GRID*               6012               01.0792651646E+02-8.808672056E+00+
*       -1.622923172E+03               0
GRID*               6013               09.0814194927E+01-9.312505664E+00+
*       -1.623116574E+03               0
GRID*               6014               01.5875622155E+02-3.930986961E+00+
*       -1.611720171E+03               0
GRID*               6015               01.4182736544E+02-6.088318735E+00+
*       -1.611941649E+03               0
GRID*               6016               01.2485732460E+02-7.830892718E+00+
*       -1.612164634E+03               0
GRID*               6017               01.0781421249E+02-8.790744197E+00+
*       -1.612389681E+03               0
GRID*               6018               09.0751945324E+01-9.291382499E+00+
*       -1.612615004E+03               0
GRID*               6019               01.5849434206E+02-3.928227264E+00+
*       -1.601090740E+03               0
GRID*               6020               01.4161603212E+02-6.083267404E+00+
*       -1.601344239E+03               0
GRID*               6021               01.2469502214E+02-7.815818189E+00+
*       -1.601599236E+03               0
GRID*               6022               01.0770196868E+02-8.772866400E+00+
*       -1.601856241E+03               0
GRID*               6023               09.0689723953E+01-9.270115255E+00+
*       -1.602113466E+03               0
GRID*               6024               01.5823248511E+02-3.925398427E+00+
*       -1.590461325E+03               0
GRID*               6025               01.4140471504E+02-6.078044150E+00+
*       -1.590746861E+03               0
GRID*               6026               01.2453277278E+02-7.800815696E+00+
*       -1.591033874E+03               0
GRID*               6027               01.0758976660E+02-8.755034905E+00+
*       -1.591322835E+03               0
GRID*               6028               09.0627520995E+01-9.248710383E+00+
*       -1.591611947E+03               0
GRID*               6029               01.5797064256E+02-3.922504876E+00+
*       -1.579831921E+03               0
GRID*               6030               01.4119340188E+02-6.072658752E+00+
*       -1.580149502E+03               0
GRID*               6031               01.2437056182E+02-7.785883785E+00+
*       -1.580468536E+03               0
GRID*               6032               01.0747759414E+02-8.737246148E+00+
*       -1.580789449E+03               0
GRID*               6033               09.0565329963E+01-9.227174115E+00+
*       -1.581110442E+03               0
GRID*               6034               01.5770880965E+02-3.919550556E+00+
*       -1.569202523E+03               0
GRID*               6035               01.4098208552E+02-6.067119943E+00+
*       -1.569552156E+03               0
GRID*               6036               01.2420837999E+02-7.771020674E+00+
*       -1.569903213E+03               0
GRID*               6037               01.0736544344E+02-8.719496784E+00+
*       -1.570256078E+03               0
GRID*               6038               09.0503146674E+01-9.205512496E+00+
*       -1.570608945E+03               0
GRID*               6039               01.5744698368E+02-3.916539084E+00+
*       -1.558573130E+03               0
GRID*               6040               01.4077076207E+02-6.061435708E+00+
*       -1.558954819E+03               0
GRID*               6041               01.2404622143E+02-7.756224397E+00+
*       -1.559337901E+03               0
GRID*               6042               01.0725330945E+02-8.701783695E+00+
*       -1.559722716E+03               0
GRID*               6043               09.0440968485E+01-9.183731409E+00+
*       -1.560107455E+03               0
GRID*               6044               01.5718516316E+02-3.913473830E+00+
*       -1.547943740E+03               0
GRID*               6045               01.4055942958E+02-6.055613470E+00+
*       -1.548357489E+03               0
GRID*               6046               01.2388408251E+02-7.741492900E+00+
*       -1.548772596E+03               0
GRID*               6047               01.0714118898E+02-8.684103990E+00+
*       -1.549189362E+03               0
GRID*               6048               09.0378793765E+01-9.161836588E+00+
*       -1.549605970E+03               0
GRID*               6049               01.5692334729E+02-3.910357977E+00+
*       -1.537314353E+03               0
GRID*               6050               01.4034808726E+02-6.049660212E+00+
*       -1.537760164E+03               0
GRID*               6051               01.2372196091E+02-7.726824095E+00+
*       -1.538207296E+03               0
GRID*               6052               01.0702907997E+02-8.666454995E+00+
*       -1.538656012E+03               0
GRID*               6053               09.0316621527E+01-9.139833635E+00+
*       -1.539104487E+03               0
GRID*               6054               01.5666153567E+02-3.907194554E+00+
*       -1.526684968E+03               0
GRID*               6055               01.4013673501E+02-6.043582555E+00+
*       -1.527162843E+03               0
GRID*               6056               01.2355985515E+02-7.712215907E+00+
*       -1.527642001E+03               0
GRID*               6057               01.0691698108E+02-8.648834247E+00+
*       -1.528122667E+03               0
GRID*               6058               09.0254451191E+01-9.117728030E+00+
*       -1.528603008E+03               0
GRID*               6059               01.5639972817E+02-3.903986461E+00+
*       -1.516055585E+03               0
GRID*               6060               01.3992537307E+02-6.037386807E+00+
*       -1.516565526E+03               0
GRID*               6061               01.2339776423E+02-7.697666286E+00+
*       -1.517076710E+03               0
GRID*               6062               01.0680489145E+02-8.631239473E+00+
*       -1.517589325E+03               0
GRID*               6063               09.0192282427E+01-9.095525135E+00+
*       -1.518101532E+03               0
GRID*               6064               01.5613792472E+02-3.900736479E+00+
*       -1.505426204E+03               0
GRID*               6065               01.3971400191E+02-6.031078997E+00+
*       -1.505968212E+03               0
GRID*               6066               01.2323568745E+02-7.683173227E+00+
*       -1.506511423E+03               0
GRID*               6067               01.0669281045E+02-8.613668581E+00+
*       -1.507055987E+03               0
GRID*               6068               09.0130115054E+01-9.073230204E+00+
*       -1.507600057E+03               0
GRID*               6069               01.5587612537E+02-3.897447287E+00+
*       -1.494796824E+03               0
GRID*               6070               01.3950262209E+02-6.024664900E+00+
*       -1.495370902E+03               0
GRID*               6071               01.2307362426E+02-7.668734775E+00+
*       -1.495946139E+03               0
GRID*               6072               01.0658073766E+02-8.596119641E+00+
*       -1.496522653E+03               0
GRID*               6073               09.0067948980E+01-9.050848388E+00+
*       -1.497098585E+03               0
GRID*               6074               01.5561433019E+02-3.894121461E+00+
*       -1.484167446E+03               0
GRID*               6075               01.3929123421E+02-6.018150049E+00+
*       -1.484773595E+03               0
GRID*               6076               01.2291157425E+02-7.654349025E+00+
*       -1.485380859E+03               0
GRID*               6077               01.0646867273E+02-8.578590874E+00+
*       -1.485989321E+03               0
GRID*               6078               09.0005784165E+01-9.028384735E+00+
*       -1.486597115E+03               0
GRID*               6079               01.5535253927E+02-3.890761489E+00+
*       -1.473538070E+03               0
GRID*               6080               01.3907983890E+02-6.011539750E+00+
*       -1.474176291E+03               0
GRID*               6081               01.2274953702E+02-7.640014129E+00+
*       -1.474815582E+03               0
GRID*               6082               01.0635661541E+02-8.561080635E+00+
*       -1.475455993E+03               0
GRID*               6083               08.9943620599E+01-9.005844199E+00+
*       -1.476095648E+03               0
GRID*               6084               01.5509075270E+02-3.887369770E+00+
*       -1.462908695E+03               0
GRID*               6085               01.3886843677E+02-6.004839093E+00+
*       -1.463578991E+03               0
GRID*               6086               01.2258751227E+02-7.625728291E+00+
*       -1.464250309E+03               0
GRID*               6087               01.0624456545E+02-8.543587407E+00+
*       -1.464922668E+03               0
GRID*               6088               08.9881458287E+01-8.983231640E+00+
*       -1.465594182E+03               0
GRID*               6089               01.5482897057E+02-3.883948618E+00+
*       -1.452279322E+03               0
GRID*               6090               01.3865702842E+02-5.998052960E+00+
*       -1.452981693E+03               0
GRID*               6091               01.2242549968E+02-7.611489768E+00+
*       -1.453685039E+03               0
GRID*               6092               01.0613252266E+02-8.526109785E+00+
*       -1.454389346E+03               0
GRID*               6093               08.9819297242E+01-8.960551829E+00+
*       -1.455092718E+03               0
GRID*               6094               01.5456719300E+02-3.880500269E+00+
*       -1.441649951E+03               0
GRID*               6095               01.3844561444E+02-5.991186034E+00+
*       -1.442384399E+03               0
GRID*               6096               01.2226349896E+02-7.597296870E+00+
*       -1.443119772E+03               0
GRID*               6097               01.0602048688E+02-8.508646468E+00+
*       -1.443856027E+03               0
GRID*               6098               08.9757137483E+01-8.937809452E+00+
*       -1.444591257E+03               0
GRID*               6099               01.5430542007E+02-3.877026882E+00+
*       -1.431020581E+03               0
GRID*               6100               01.3823419538E+02-5.984242805E+00+
*       -1.431787108E+03               0
GRID*               6101               01.2210150984E+02-7.583147956E+00+
*       -1.432554509E+03               0
GRID*               6102               01.0590845793E+02-8.491196247E+00+
*       -1.433322711E+03               0
GRID*               6103               08.9694979030E+01-8.915009110E+00+
*       -1.434089797E+03               0
GRID*               6104               01.5404365188E+02-3.873530545E+00+
*       -1.420391213E+03               0
GRID*               6105               01.3802277179E+02-5.977227576E+00+
*       -1.421189821E+03               0
GRID*               6106               01.2193953206E+02-7.569041436E+00+
*       -1.421989249E+03               0
GRID*               6107               01.0579643568E+02-8.473758004E+00+
*       -1.422789399E+03               0
GRID*               6108               08.9632821901E+01-8.892155326E+00+
*       -1.423588340E+03               0
GRID*               6109               01.5378188853E+02-3.870013274E+00+
*       -1.409761846E+03               0
GRID*               6110               01.3781134417E+02-5.970144472E+00+
*       -1.410592536E+03               0
GRID*               6111               01.2177756536E+02-7.554975767E+00+
*       -1.411423992E+03               0
GRID*               6112               01.0568441998E+02-8.456330697E+00+
*       -1.412256089E+03               0
GRID*               6113               08.9570666118E+01-8.869252543E+00+
*       -1.413086884E+03               0
GRID*               6114               01.5352013011E+02-3.866477018E+00+
*       -1.399132481E+03               0
GRID*               6115               01.3759991304E+02-5.962997445E+00+
*       -1.399995254E+03               0
GRID*               6116               01.2161560951E+02-7.540949452E+00+
*       -1.400858739E+03               0
GRID*               6117               01.0557241072E+02-8.438913358E+00+
*       -1.401722783E+03               0
GRID*               6118               08.9508511698E+01-8.846305132E+00+
*       -1.402585431E+03               0
GRID*               6119               01.5325837672E+02-3.862923665E+00+
*       -1.388503118E+03               0
GRID*               6120               01.3738847886E+02-5.955790280E+00+
*       -1.389397976E+03               0
GRID*               6121               01.2145366427E+02-7.526961040E+00+
*       -1.390293490E+03               0
GRID*               6122               01.0546040778E+02-8.421505084E+00+
*       -1.391189480E+03               0
GRID*               6123               08.9446358660E+01-8.823317391E+00+
*       -1.392083979E+03               0
GRID*               6124               01.5299662844E+02-3.859355037E+00+
*       -1.377873756E+03               0
GRID*               6125               01.3717704210E+02-5.948526601E+00+
*       -1.378800701E+03               0
GRID*               6126               01.2129172942E+02-7.513009123E+00+
*       -1.379728244E+03               0
GRID*               6127               01.0534841105E+02-8.404105035E+00+
*       -1.380656180E+03               0
GRID*               6128               08.9384207021E+01-8.800293551E+00+
*       -1.381582529E+03               0
GRID*               6129               01.5273488535E+02-3.855772900E+00+
*       -1.367244396E+03               0
GRID*               6130               01.3696560319E+02-5.941209873E+00+
*       -1.368203428E+03               0
GRID*               6131               01.2112980473E+02-7.499092336E+00+
*       -1.369163001E+03               0
GRID*               6132               01.0523642043E+02-8.386712427E+00+
*       -1.370122883E+03               0
GRID*               6133               08.9322056796E+01-8.777237774E+00+
*       -1.371081082E+03               0
GRID*               6134               01.5247314755E+02-3.852178962E+00+
*       -1.356615037E+03               0
GRID*               6135               01.3675416254E+02-5.933843415E+00+
*       -1.357606159E+03               0
GRID*               6136               01.2096788999E+02-7.485209353E+00+
*       -1.358597761E+03               0
GRID*               6137               01.0512443582E+02-8.369326528E+00+
*       -1.359589589E+03               0
GRID*               6138               08.9259908001E+01-8.754154160E+00+
*       -1.360579636E+03               0
GRID*               6139               01.5221141512E+02-3.848574878E+00+
*       -1.345985680E+03               0
GRID*               6140               01.3654272055E+02-5.926430397E+00+
*       -1.347008893E+03               0
GRID*               6141               01.2080598501E+02-7.471358892E+00+
*       -1.348032525E+03               0
GRID*               6142               01.0501245714E+02-8.351946653E+00+
*       -1.349056299E+03               0
GRID*               6143               08.9197760648E+01-8.731046747E+00+
*       -1.350078193E+03               0
GRID*               6144               01.5194968814E+02-3.844962249E+00+
*       -1.335356324E+03               0
GRID*               6145               01.3633127761E+02-5.918973849E+00+
*       -1.336411630E+03               0
GRID*               6146               01.2064408959E+02-7.457539705E+00+
*       -1.337467293E+03               0
GRID*               6147               01.0490048430E+02-8.334572162E+00+
*       -1.338523011E+03               0
GRID*               6148               08.9135614750E+01-8.707919516E+00+
*       -1.339576751E+03               0
GRID*               6149               01.5168796670E+02-3.841342627E+00+
*       -1.324726970E+03               0
GRID*               6150               01.3611983409E+02-5.911476666E+00+
*       -1.325814370E+03               0
GRID*               6151               01.2048220353E+02-7.443750586E+00+
*       -1.326902064E+03               0
GRID*               6152               01.0478851722E+02-8.317202457E+00+
*       -1.327989727E+03               0
GRID*               6153               08.9073470319E+01-8.684776392E+00+
*       -1.329075311E+03               0
GRID*               6154               01.5142625086E+02-3.837717516E+00+
*       -1.314097618E+03               0
GRID*               6155               01.3590839032E+02-5.903941609E+00+
*       -1.315217113E+03               0
GRID*               6156               01.2032032666E+02-7.429990363E+00+
*       -1.316336838E+03               0
GRID*               6157               01.0467655584E+02-8.299836976E+00+
*       -1.317456446E+03               0
GRID*               6158               08.9011327365E+01-8.661621245E+00+
*       -1.318573874E+03               0
GRID*               6159               01.5116454072E+02-3.834088373E+00+
*       -1.303468267E+03               0
GRID*               6160               01.3569694664E+02-5.896371314E+00+
*       -1.304619859E+03               0
GRID*               6161               01.2015845880E+02-7.416257900E+00+
*       -1.305771616E+03               0
GRID*               6162               01.0456460009E+02-8.282475194E+00+
*       -1.306923168E+03               0
GRID*               6163               08.8949185897E+01-8.638457895E+00+
*       -1.308072438E+03               0
GRID*               6164               01.5090283635E+02-3.830456612E+00+
*       -1.292838918E+03               0
GRID*               6165               01.3548550337E+02-5.888768292E+00+
*       -1.294022609E+03               0
GRID*               6166               01.1999659977E+02-7.402552096E+00+
*       -1.295206398E+03               0
GRID*               6167               01.0445264989E+02-8.265116618E+00+
*       -1.296389894E+03               0
GRID*               6168               08.8887045924E+01-8.615290114E+00+
*       -1.297571004E+03               0
GRID*               6169               01.5064113783E+02-3.826823602E+00+
*       -1.282209570E+03               0
GRID*               6170               01.3527406082E+02-5.881134936E+00+
*       -1.283425361E+03               0
GRID*               6171               01.1983474943E+02-7.388871882E+00+
*       -1.284641182E+03               0
GRID*               6172               01.0434070519E+02-8.247760784E+00+
*       -1.285856622E+03               0
GRID*               6173               08.8824907454E+01-8.592121629E+00+
*       -1.287069572E+03               0
GRID*               6174               01.5037944523E+02-3.823190673E+00+
*       -1.271580224E+03               0
GRID*               6175               01.3506261927E+02-5.873473523E+00+
*       -1.272828116E+03               0
GRID*               6176               01.1967290761E+02-7.375216221E+00+
*       -1.274075970E+03               0
GRID*               6177               01.0422876595E+02-8.230407258E+00+
*       -1.275323354E+03               0
GRID*               6178               08.8762770500E+01-8.568956122E+00+
*       -1.276568142E+03               0
GRID*               6179               01.5011775866E+02-3.819559113E+00+
*       -1.260950879E+03               0
GRID*               6180               01.3485117903E+02-5.865786214E+00+
*       -1.262230874E+03               0
GRID*               6181               01.1951107421E+02-7.361584107E+00+
*       -1.263510762E+03               0
GRID*               6182               01.0411683213E+02-8.213055630E+00+
*       -1.264790089E+03               0
GRID*               6183               08.8700635080E+01-8.545797236E+00+
*       -1.266066713E+03               0
GRID*               6184               01.4985607823E+02-3.815930169E+00+
*       -1.250321536E+03               0
GRID*               6185               01.3463974042E+02-5.858075061E+00+
*       -1.251633635E+03               0
GRID*               6186               01.1934924912E+02-7.347974563E+00+
*       -1.252945557E+03               0
GRID*               6187               01.0400490373E+02-8.195705516E+00+
*       -1.254256827E+03               0
GRID*               6188               08.8638501217E+01-8.522648575E+00+
*       -1.255565287E+03               0
GRID*               6189               01.4959440406E+02-3.812305052E+00+
*       -1.239692194E+03               0
GRID*               6190               01.3442830376E+02-5.850342007E+00+
*       -1.241036399E+03               0
GRID*               6191               01.1918743228E+02-7.334386638E+00+
*       -1.242380356E+03               0
GRID*               6192               01.0389298074E+02-8.178356552E+00+
*       -1.243723568E+03               0
GRID*               6193               08.8576368944E+01-8.499513706E+00+
*       -1.245063863E+03               0
GRID*               6194               01.4933273634E+02-3.808684931E+00+
*       -1.229062854E+03               0
GRID*               6195               01.3421686942E+02-5.842588889E+00+
*       -1.230439167E+03               0
GRID*               6196               01.1902562366E+02-7.320819412E+00+
*       -1.231815158E+03               0
GRID*               6197               01.0378106320E+02-8.161008395E+00+
*       -1.233190313E+03               0
GRID*               6198               08.8514238297E+01-8.476396166E+00+
*       -1.234562440E+03               0
GRID*               6199               01.4907107528E+02-3.805070938E+00+
*       -1.218433516E+03               0
GRID*               6200               01.3400543776E+02-5.834817443E+00+
*       -1.219841937E+03               0
GRID*               6201               01.1886382324E+02-7.307271987E+00+
*       -1.221249963E+03               0
GRID*               6202               01.0366915113E+02-8.143660723E+00+
*       -1.222657060E+03               0
GRID*               6203               08.8452109312E+01-8.453299460E+00+
*       -1.224061019E+03               0
GRID*               6204               01.4880942121E+02-3.801464160E+00+
*       -1.207804179E+03               0
GRID*               6205               01.3379400921E+02-5.827029303E+00+
*       -1.209244710E+03               0
GRID*               6206               01.1870203103E+02-7.293743495E+00+
*       -1.210684772E+03               0
GRID*               6207               01.0355724458E+02-8.126313232E+00+
*       -1.212123811E+03               0
GRID*               6208               08.8389982022E+01-8.430227065E+00+
*       -1.213559600E+03               0
GRID*               6209               01.4854777473E+02-3.797865623E+00+
*       -1.197174843E+03               0
GRID*               6210               01.3358258423E+02-5.819226004E+00+
*       -1.198647486E+03               0
GRID*               6211               01.1854024703E+02-7.280233094E+00+
*       -1.200119585E+03               0
GRID*               6212               01.0344534355E+02-8.108965635E+00+
*       -1.201590565E+03               0
GRID*               6213               08.8327856452E+01-8.407182436E+00+
*       -1.203058183E+03               0
GRID*               6214               01.4828613724E+02-3.794276236E+00+
*       -1.186545509E+03               0
GRID*               6215               01.3337116334E+02-5.811408985E+00+
*       -1.188050265E+03               0
GRID*               6216               01.1837847122E+02-7.266739969E+00+
*       -1.189554401E+03               0
GRID*               6217               01.0333344806E+02-8.091617665E+00+
*       -1.191057322E+03               0
GRID*               6218               08.8265732615E+01-8.384169005E+00+
*       -1.192556768E+03               0
GRID*               6219               01.4802450861E+02-3.790697046E+00+
*       -1.175916176E+03               0
GRID*               6220               01.3315974669E+02-5.803579643E+00+
*       -1.177453046E+03               0
GRID*               6221               01.1821670350E+02-7.253263338E+00+
*       -1.178989220E+03               0
GRID*               6222               01.0322155805E+02-8.074269067E+00+
*       -1.180524082E+03               0
GRID*               6223               08.8203610504E+01-8.361190184E+00+
*       -1.182055355E+03               0
GRID*               6224               01.4776288776E+02-3.787129172E+00+
*       -1.165286845E+03               0
GRID*               6225               01.3294833414E+02-5.795739330E+00+
*       -1.166855831E+03               0
GRID*               6226               01.1805494362E+02-7.239802451E+00+
*       -1.168424042E+03               0
GRID*               6227               01.0310967346E+02-8.056919606E+00+
*       -1.169990845E+03               0
GRID*               6228               08.8141490099E+01-8.338249374E+00+
*       -1.171553943E+03               0
GRID*               6229               01.4750127421E+02-3.783573646E+00+
*       -1.154657515E+03               0
GRID*               6230               01.3273692554E+02-5.787889320E+00+
*       -1.156258619E+03               0
GRID*               6231               01.1789319135E+02-7.226356584E+00+
*       -1.157858869E+03               0
GRID*               6232               01.0299779418E+02-8.039569060E+00+
*       -1.159457611E+03               0
GRID*               6233               08.8079371365E+01-8.315349959E+00+
*       -1.161052533E+03               0
GRID*               6234               01.4723966774E+02-3.780031444E+00+
*       -1.144028187E+03               0
GRID*               6235               01.3252552080E+02-5.780030796E+00+
*       -1.145661409E+03               0
GRID*               6236               01.1773144643E+02-7.212925035E+00+
*       -1.147293698E+03               0
GRID*               6237               01.0288592009E+02-8.022217220E+00+
*       -1.148924381E+03               0
GRID*               6238               08.8017254262E+01-8.292495317E+00+
*       -1.150551125E+03               0
GRID*               6239               01.4697806828E+02-3.776503502E+00+
*       -1.133398860E+03               0
GRID*               6240               01.3231411991E+02-5.772164857E+00+
*       -1.135064203E+03               0
GRID*               6241               01.1756970865E+02-7.199507124E+00+
*       -1.136728531E+03               0
GRID*               6242               01.0277405109E+02-8.004863886E+00+
*       -1.138391154E+03               0
GRID*               6243               08.7955138748E+01-8.269688817E+00+
*       -1.140049719E+03               0
GRID*               6244               01.4671647582E+02-3.772990728E+00+
*       -1.122769534E+03               0
GRID*               6245               01.3210272289E+02-5.764292522E+00+
*       -1.124466999E+03               0
GRID*               6246               01.1740797783E+02-7.186102189E+00+
*       -1.126163368E+03               0
GRID*               6247               01.0266218711E+02-7.987508872E+00+
*       -1.127857930E+03               0
GRID*               6248               08.7893024789E+01-8.246933828E+00+
*       -1.129548314E+03               0
GRID*               6249               01.4645489038E+02-3.769493999E+00+
*       -1.112140211E+03               0
GRID*               6250               01.3189132979E+02-5.756414736E+00+
*       -1.113869798E+03               0
GRID*               6251               01.1724625382E+02-7.172709587E+00+
*       -1.115598207E+03               0
GRID*               6252               01.0255032806E+02-7.970152000E+00+
*       -1.117324709E+03               0
GRID*               6253               08.7830912351E+01-8.224233719E+00+
*       -1.119046912E+03               0
GRID*               6254               01.4619331201E+02-3.766014174E+00+
*       -1.101510888E+03               0
GRID*               6255               01.3167994068E+02-5.748532372E+00+
*       -1.103272600E+03               0
GRID*               6256               01.1708453649E+02-7.159328695E+00+
*       -1.105033051E+03               0
GRID*               6257               01.0243847390E+02-7.952793102E+00+
*       -1.106791491E+03               0
GRID*               6258               08.7768801408E+01-8.201591865E+00+
*       -1.108545511E+03               0
GRID*               6259               01.4593174074E+02-3.762552084E+00+
*       -1.090881567E+03               0
GRID*               6260               01.3146855564E+02-5.740646234E+00+
*       -1.092675405E+03               0
GRID*               6261               01.1692282572E+02-7.145958909E+00+
*       -1.094467897E+03               0
GRID*               6262               01.0232662457E+02-7.935432017E+00+
*       -1.096258276E+03               0
GRID*               6263               08.7706691935E+01-8.179011648E+00+
*       -1.098044111E+03               0
GRID*               6264               01.4567017664E+02-3.759108544E+00+
*       -1.080252248E+03               0
GRID*               6265               01.3125717474E+02-5.732757064E+00+
*       -1.082078213E+03               0
GRID*               6266               01.1676112141E+02-7.132599643E+00+
*       -1.083902747E+03               0
GRID*               6267               01.0221478004E+02-7.918068595E+00+
*       -1.085725064E+03               0
GRID*               6268               08.7644583910E+01-8.156496464E+00+
*       -1.087542714E+03               0
GRID*               6269               01.4540861977E+02-3.755684346E+00+
*       -1.069622930E+03               0
GRID*               6270               01.3104579805E+02-5.724865538E+00+
*       -1.071481024E+03               0
GRID*               6271               01.1659942349E+02-7.119250329E+00+
*       -1.073337601E+03               0
GRID*               6272               01.0210294027E+02-7.900702691E+00+
*       -1.075191856E+03               0
GRID*               6273               08.7582477313E+01-8.134049729E+00+
*       -1.077041318E+03               0
GRID*               6274               01.4514707019E+02-3.752280264E+00+
*       -1.058993613E+03               0
GRID*               6275               01.3083442565E+02-5.716972274E+00+
*       -1.060883838E+03               0
GRID*               6276               01.1643773185E+02-7.105910420E+00+
*       -1.062772458E+03               0
GRID*               6277               01.0199110524E+02-7.883334170E+00+
*       -1.064658650E+03               0
GRID*               6278               08.7520372124E+01-8.111674881E+00+
*       -1.066539924E+03               0
GRID*               6279               01.4488552795E+02-3.748897055E+00+
*       -1.048364298E+03               0
GRID*               6280               01.3062305761E+02-5.709077831E+00+
*       -1.050286654E+03               0
GRID*               6281               01.1627604642E+02-7.092579382E+00+
*       -1.052207318E+03               0
GRID*               6282               01.0187927491E+02-7.865962902E+00+
*       -1.054125448E+03               0
GRID*               6283               08.7458268323E+01-8.089375384E+00+
*       -1.056038531E+03               0
GRID*               6284               01.4462399313E+02-3.745535458E+00+
*       -1.037734984E+03               0
GRID*               6285               01.3041169396E+02-5.701182714E+00+
*       -1.039689473E+03               0
GRID*               6286               01.1611436714E+02-7.079256703E+00+
*       -1.041642182E+03               0
GRID*               6287               01.0176744927E+02-7.848588765E+00+
*       -1.043592248E+03               0
GRID*               6288               08.7396165890E+01-8.067154739E+00+
*       -1.045537141E+03               0
GRID*               6289               01.4436246579E+02-3.742196193E+00+
*       -1.027105672E+03               0
GRID*               6290               01.3020033478E+02-5.693287369E+00+
*       -1.029092295E+03               0
GRID*               6291               01.1595269392E+02-7.065941885E+00+
*       -1.031077049E+03               0
GRID*               6292               01.0165562828E+02-7.831211642E+00+
*       -1.033059052E+03               0
GRID*               6293               08.7334064803E+01-8.045016483E+00+
*       -1.035035752E+03               0
GRID*               6294               01.4410094599E+02-3.738879968E+00+
*       -1.016476361E+03               0
GRID*               6295               01.2998898011E+02-5.685392196E+00+
*       -1.018495120E+03               0
GRID*               6296               01.1579102669E+02-7.052634448E+00+
*       -1.020511920E+03               0
GRID*               6297               01.0154381194E+02-7.813831424E+00+
*       -1.022525859E+03               0
GRID*               6298               08.7271965038E+01-8.022964201E+00+
*       -1.024534364E+03               0
GRID*               6299               01.4383943378E+02-3.735587474E+00+
*       -1.005847051E+03               0
GRID*               6300               01.2977762998E+02-5.677497538E+00+
*       -1.007897948E+03               0
GRID*               6301               01.1562936540E+02-7.039333927E+00+
*       -1.009946794E+03               0
GRID*               6302               01.0143200020E+02-7.796448005E+00+
*       -1.011992669E+03               0
GRID*               6303               08.7209866571E+01-8.001001530E+00+
*       -1.014032978E+03               0
GRID*               6304               01.4357792924E+02-3.732319385E+00+
*       -9.952177433E+02               0
GRID*               6305               01.2956628443E+02-5.669603694E+00+
*       -9.973007788E+02               0
GRID*               6306               01.1546770998E+02-7.026039873E+00+
*       -9.993816710E+02               0
GRID*               6307               01.0132019307E+02-7.779061286E+00+
*       -1.001459482E+03               0
GRID*               6308               08.7147769376E+01-7.979132167E+00+
*       -1.003531594E+03               0
GRID*               6309               01.4331643243E+02-3.729076364E+00+
*       -9.845884366E+02               0
GRID*               6310               01.2935494348E+02-5.661710913E+00+
*       -9.867036122E+02               0
GRID*               6311               01.1530606036E+02-7.012751853E+00+
*       -9.888165517E+02               0
GRID*               6312               01.0120839050E+02-7.761671171E+00+
*       -9.909262978E+02               0
GRID*               6313               08.7085673424E+01-7.957359877E+00+
*       -9.930302115E+02               0
GRID*               6314               01.4305494340E+02-3.725859058E+00+
*       -9.739591313E+02               0
GRID*               6315               01.2914360715E+02-5.653819399E+00+
*       -9.761064484E+02               0
GRID*               6316               01.1514441649E+02-6.999469448E+00+
*       -9.782514357E+02               0
GRID*               6317               01.0109659249E+02-7.744277571E+00+
*       -9.803931169E+02               0
GRID*               6318               08.7023577444E+01-7.935688514E+00+
*       -9.825288305E+02               0
GRID*               6319               01.4279346222E+02-3.722668104E+00+
*       -9.633298274E+02               0
GRID*               6320               01.2893227547E+02-5.645929311E+00+
*       -9.655092873E+02               0
GRID*               6321               01.1498277831E+02-6.986192254E+00+
*       -9.676863230E+02               0
GRID*               6322               01.0098479901E+02-7.726880399E+00+
*       -9.698599389E+02               0
GRID*               6323               08.6961352351E+01-7.914153616E+00+
*       -9.720274511E+02               0
GRID*               6324               01.4253198895E+02-3.719504122E+00+
*       -9.527005249E+02               0
GRID*               6325               01.2872094843E+02-5.638040767E+00+
*       -9.549121291E+02               0
GRID*               6326               01.1482114576E+02-6.972919883E+00+
*       -9.571212137E+02               0
GRID*               6327               01.0087301005E+02-7.709479574E+00+
*       -9.593267640E+02               0
GRID*               6328               08.6899164372E+01-7.893098282E+00+
*       -9.615260721E+02               0
GRID*               6329               01.4227052365E+02-3.716367723E+00+
*       -9.420712238E+02               0
GRID*               6330               01.2850962604E+02-5.630153841E+00+
*       -9.443149736E+02               0
GRID*               6331               01.1465951879E+02-6.959651957E+00+
*       -9.465561077E+02               0
GRID*               6332               01.0076122557E+02-7.692075018E+00+
*       -9.487935921E+02               0
GRID*               6333               08.6837003857E+01-7.872874269E+00+
*       -9.510246932E+02               0
GRID*               6334               01.4200906638E+02-3.713259507E+00+
*       -9.314419240E+02               0
GRID*               6335               01.2829830830E+02-5.622268569E+00+
*       -9.337178209E+02               0
GRID*               6336               01.1449789735E+02-6.946388116E+00+
*       -9.359910050E+02               0
GRID*               6337               01.0064944558E+02-7.674666655E+00+
*       -9.382604232E+02               0
GRID*               6338               08.6774863166E+01-7.853708041E+00+
*       -9.405233140E+02               0
GRID*               6339               01.4174761721E+02-3.710180059E+00+
*       -9.208126256E+02               0
GRID*               6340               01.2808699521E+02-5.614384948E+00+
*       -9.231206709E+02               0
GRID*               6341               01.1433628138E+02-6.933128011E+00+
*       -9.254259056E+02               0
GRID*               6342               01.0053767003E+02-7.657254415E+00+
*       -9.277272573E+02               0
GRID*               6343               08.6712736216E+01-7.835728185E+00+
*       -9.300219344E+02               0
GRID*               6344               01.4148617619E+02-3.707129957E+00+
*       -9.101833286E+02               0
GRID*               6345               01.2787568674E+02-5.606502938E+00+
*       -9.125235236E+02               0
GRID*               6346               01.1417467084E+02-6.919871305E+00+
*       -9.148608095E+02               0
GRID*               6347               01.0042589892E+02-7.639838229E+00+
*       -9.171940943E+02               0
GRID*               6348               08.6650618150E+01-7.818984252E+00+
*       -9.195205544E+02               0
GRID*               6349               01.4122474339E+02-3.704109767E+00+
*       -8.995540329E+02               0
GRID*               6350               01.2766438289E+02-5.598622461E+00+
*       -9.019263791E+02               0
GRID*               6351               01.1401306568E+02-6.906617677E+00+
*       -9.042957167E+02               0
GRID*               6352               01.0031413222E+02-7.622418031E+00+
*       -9.066609343E+02               0
GRID*               6353               08.6588505118E+01-7.803459395E+00+
*       -9.090191740E+02               0
GRID*               6354               01.4096331886E+02-3.701120046E+00+
*       -8.889247385E+02               0
GRID*               6355               01.2745308363E+02-5.590743405E+00+
*       -8.913292373E+02               0
GRID*               6356               01.1385146585E+02-6.893366816E+00+
*       -8.937306272E+02               0
GRID*               6357               01.0020236992E+02-7.604993760E+00+
*       -8.961277772E+02               0
GRID*               6358               08.6526394103E+01-7.789078344E+00+
*       -8.985177933E+02               0
GRID*               6359               01.4070190267E+02-3.698161340E+00+
*       -8.782954455E+02               0
GRID*               6360               01.2724178894E+02-5.582865627E+00+
*       -8.807320981E+02               0
GRID*               6361               01.1368987131E+02-6.880118424E+00+
*       -8.831655409E+02               0
GRID*               6362               01.0009061199E+02-7.587565354E+00+
*       -8.855946231E+02               0
GRID*               6363               08.6464282817E+01-7.775711566E+00+
*       -8.880164127E+02               0
GRID*               6364               01.4044049487E+02-3.695234187E+00+
*       -8.676661538E+02               0
GRID*               6365               01.2703049878E+02-5.574988947E+00+
*       -8.701349617E+02               0
GRID*               6366               01.1352828202E+02-6.866872216E+00+
*       -8.726004578E+02               0
GRID*               6367               09.9978858423E+01-7.570132755E+00+
*       -8.750614719E+02               0
GRID*               6368               08.6402169627E+01-7.763176082E+00+
*       -8.775150325E+02               0
GRID*               6369               01.4017909553E+02-3.692339117E+00+
*       -8.570368634E+02               0
GRID*               6370               01.2681921312E+02-5.567113158E+00+
*       -8.595378280E+02               0
GRID*               6371               01.1336669793E+02-6.853627919E+00+
*       -8.620353780E+02               0
GRID*               6372               09.9867109190E+01-7.552695909E+00+
*       -8.645283236E+02               0
GRID*               6373               08.6340053516E+01-7.751232996E+00+
*       -8.670136530E+02               0
GRID*               6374               01.3991770471E+02-3.689476649E+00+
*       -8.464075743E+02               0
GRID*               6375               01.2660793192E+02-5.559238018E+00+
*       -8.489406969E+02               0
GRID*               6376               01.1320511900E+02-6.840385270E+00+
*       -8.514703013E+02               0
GRID*               6377               09.9755364272E+01-7.535254760E+00+
*       -8.539951782E+02               0
GRID*               6378               08.6277934080E+01-7.739581445E+00+
*       -8.565122747E+02               0
GRID*               6379               01.3965632246E+02-3.686647297E+00+
*       -8.357782865E+02               0
GRID*               6380               01.2639665513E+02-5.551363260E+00+
*       -8.383435685E+02               0
GRID*               6381               01.1304354518E+02-6.827144020E+00+
*       -8.409052279E+02               0
GRID*               6382               09.9643623652E+01-7.517809256E+00+
*       -8.434620356E+02               0
GRID*               6383               08.6215811559E+01-7.727848273E+00+
*       -8.460108982E+02               0
GRID*               6384               01.3939494885E+02-3.683851565E+00+
*       -8.251490000E+02               0
GRID*               6385               01.2618538272E+02-5.543488586E+00+
*       -8.277464428E+02               0
GRID*               6386               01.1288197645E+02-6.813903929E+00+
*       -8.303401577E+02               0
GRID*               6387               09.9531887308E+01-7.500359348E+00+
*       -8.329288960E+02               0
GRID*               6388               08.6153686905E+01-7.715572160E+00+
*       -8.355095244E+02               0
GRID*               6389               01.3913358393E+02-3.681089952E+00+
*       -8.145197147E+02               0
GRID*               6390               01.2597411463E+02-5.535613673E+00+
*       -8.171493196E+02               0
GRID*               6391               01.1272041277E+02-6.800664772E+00+
*       -8.197750906E+02               0
GRID*               6392               09.9420155220E+01-7.482904985E+00+
*       -8.223957592E+02               0
GRID*               6393               08.6091561906E+01-7.702180154E+00+
*       -8.250081541E+02               0
GRID*               6394               01.3887222777E+02-3.678362946E+00+
*       -8.038904308E+02               0
GRID*               6395               01.2576285080E+02-5.527738169E+00+
*       -8.065521992E+02               0
GRID*               6396               01.1255885408E+02-6.787426331E+00+
*       -8.092100267E+02               0
GRID*               6397               09.9308427369E+01-7.465446121E+00+
*       -8.118626252E+02               0
GRID*               6398               08.6029439372E+01-7.686953265E+00+
*       -8.145067885E+02               0
GRID*               6399               01.3861088042E+02-3.675671033E+00+
*       -7.932611481E+02               0
GRID*               6400               01.2555159118E+02-5.519861698E+00+
*       -7.959550813E+02               0
GRID*               6401               01.1239730037E+02-6.774188402E+00+
*       -7.986449659E+02               0
GRID*               6402               09.9196703733E+01-7.447982709E+00+
*       -8.013294940E+02               0
GRID*               6403               08.5967204617E+01-7.669422532E+00+
*       -8.040054299E+02               0
GRID*               6404               01.3834954194E+02-3.673014689E+00+
*       -7.826318666E+02               0
GRID*               6405               01.2534033570E+02-5.511983860E+00+
*       -7.853579660E+02               0
GRID*               6406               01.1223575159E+02-6.760950793E+00+
*       -7.880799082E+02               0
GRID*               6407               09.9084984291E+01-7.430514702E+00+
*       -7.907963657E+02               0
GRID*               6408               08.5904787526E+01-7.653784420E+00+
*       -7.935040726E+02               0
GRID*               6409               01.3808821239E+02-3.670394384E+00+
*       -7.720025864E+02               0
GRID*               6410               01.2512908431E+02-5.504104229E+00+
*       -7.747608533E+02               0
GRID*               6411               01.1207420770E+02-6.747713321E+00+
*       -7.775148537E+02               0
GRID*               6412               09.8973269023E+01-7.413042058E+00+
*       -7.802632401E+02               0
GRID*               6413               08.5842381743E+01-7.641250737E+00+
*       -7.830027118E+02               0
GRID*               6414               01.3782689183E+02-3.667810585E+00+
*       -7.613733074E+02               0
GRID*               6415               01.2491783692E+02-5.496222360E+00+
*       -7.641637432E+02               0
GRID*               6416               01.1191266868E+02-6.734475815E+00+
*       -7.669498022E+02               0
GRID*               6417               09.8861557908E+01-7.395564732E+00+
*       -7.697301173E+02               0
GRID*               6418               08.5779972368E+01-7.631402038E+00+
*       -7.725013484E+02               0
GRID*               6419               01.3756558033E+02-3.665263750E+00+
*       -7.507440296E+02               0
GRID*               6420               01.2470659348E+02-5.488337783E+00+
*       -7.535666356E+02               0
GRID*               6421               01.1175113449E+02-6.721238115E+00+
*       -7.563847538E+02               0
GRID*               6422               09.8749850923E+01-7.378082680E+00+
*       -7.591969973E+02               0
GRID*               6423               08.5717552327E+01-7.623535609E+00+
*       -7.619999834E+02               0
GRID*               6424               01.3730427792E+02-3.662754334E+00+
*       -7.401147531E+02               0
GRID*               6425               01.2449535390E+02-5.480450006E+00+
*       -7.429695306E+02               0
GRID*               6426               01.1158960510E+02-6.708000074E+00+
*       -7.458197084E+02               0
GRID*               6427               09.8638148046E+01-7.360595862E+00+
*       -7.486638800E+02               0
GRID*               6428               08.5655120209E+01-7.616689325E+00+
*       -7.514986184E+02               0
GRID*               6429               01.3704298469E+02-3.660282784E+00+
*       -7.294854778E+02               0
GRID*               6430               01.2428411811E+02-5.472558518E+00+
*       -7.323724281E+02               0
GRID*               6431               01.1142808047E+02-6.694761554E+00+
*       -7.352546661E+02               0
GRID*               6432               09.8526449256E+01-7.343104234E+00+
*       -7.381307654E+02               0
GRID*               6433               08.5592679687E+01-7.609592326E+00+
*       -7.409972555E+02               0
GRID*               6434               01.3678170067E+02-3.657849545E+00+
*       -7.188562036E+02               0
GRID*               6435               01.2407288603E+02-5.464662789E+00+
*       -7.217753281E+02               0
GRID*               6436               01.1126656057E+02-6.681522430E+00+
*       -7.246896267E+02               0
GRID*               6437               09.8414754530E+01-7.325607755E+00+
*       -7.275976535E+02               0
GRID*               6438               08.5530240275E+01-7.600526027E+00+
*       -7.304958974E+02               0
GRID*               6439               01.3652042594E+02-3.655455055E+00+
*       -7.082269306E+02               0
GRID*               6440               01.2386165758E+02-5.456762268E+00+
*       -7.111782307E+02               0
GRID*               6441               01.1110504537E+02-6.668282589E+00+
*       -7.141245904E+02               0
GRID*               6442               09.8303063846E+01-7.308106383E+00+
*       -7.170645443E+02               0
GRID*               6443               08.5467819853E+01-7.587030616E+00+
*       -7.199945480E+02               0
GRID*               6444               01.3625916054E+02-3.653099749E+00+
*       -6.975976588E+02               0
GRID*               6445               01.2365043266E+02-5.448856385E+00+
*       -7.005811357E+02               0
GRID*               6446               01.1094353485E+02-6.655041930E+00+
*       -7.035595570E+02               0
GRID*               6447               09.8191377179E+01-7.290600079E+00+
*       -7.065314378E+02               0
GRID*               6448               08.5405724920E+01-7.568740254E+00+
*       -7.094932080E+02               0
GRID*               6449               01.3599790455E+02-3.650784058E+00+
*       -6.869683882E+02               0
GRID*               6450               01.2343921120E+02-5.440944554E+00+
*       -6.899840432E+02               0
GRID*               6451               01.1078202896E+02-6.641800362E+00+
*       -6.929945266E+02               0
GRID*               6452               09.8079694506E+01-7.273088799E+00+
*       -6.959983339E+02               0
GRID*               6453               08.5343636087E+01-7.549416040E+00+
*       -6.989918810E+02               0
GRID*               6454               01.3573665800E+02-3.648508406E+00+
*       -6.763391186E+02               0
GRID*               6455               01.2322799310E+02-5.433026169E+00+
*       -6.793869531E+02               0
GRID*               6456               01.1062052767E+02-6.628557808E+00+
*       -6.824294991E+02               0
GRID*               6457               09.7968015805E+01-7.255572503E+00+
*       -6.854652326E+02               0
GRID*               6458               08.5281503384E+01-7.529201702E+00+
*       -6.884905669E+02               0
GRID*               6459               01.3547542097E+02-3.646273217E+00+
*       -6.657098503E+02               0
GRID*               6460               01.2301677826E+02-5.425100609E+00+
*       -6.687898655E+02               0
GRID*               6461               01.1045903097E+02-6.615314206E+00+
*       -6.718644746E+02               0
GRID*               6462               09.7856341049E+01-7.238051149E+00+
*       -6.749321339E+02               0
GRID*               6463               08.5219330229E+01-7.508163567E+00+
*       -6.779892647E+02               0
GRID*               6464               01.3521419350E+02-3.644078907E+00+
*       -6.550805830E+02               0
GRID*               6465               01.2280556659E+02-5.417167235E+00+
*       -6.581927803E+02               0
GRID*               6466               01.1029753881E+02-6.602069504E+00+
*       -6.612994529E+02               0
GRID*               6467               09.7744670215E+01-7.220524696E+00+
*       -6.643990379E+02               0
GRID*               6468               08.5157119919E+01-7.486365659E+00+
*       -6.674879738E+02               0
GRID*               6469               01.3495297566E+02-3.641925894E+00+
*       -6.444513169E+02               0
GRID*               6470               01.2259435799E+02-5.409225394E+00+
*       -6.475956975E+02               0
GRID*               6471               01.1013605118E+02-6.588823665E+00+
*       -6.507344341E+02               0
GRID*               6472               09.7633003278E+01-7.202993100E+00+
*       -6.538659444E+02               0
GRID*               6473               08.5094875637E+01-7.463869769E+00+
*       -6.569866932E+02               0
GRID*               6474               01.3469176751E+02-3.639814586E+00+
*       -6.338220519E+02               0
GRID*               6475               01.2238315237E+02-5.401274415E+00+
*       -6.369986172E+02               0
GRID*               6476               01.0997456803E+02-6.575576666E+00+
*       -6.401694181E+02               0
GRID*               6477               09.7521340211E+01-7.185456319E+00+
*       -6.433328534E+02               0
GRID*               6478               08.5032600454E+01-7.440735527E+00+
*       -6.464854222E+02               0
GRID*               6479               01.3443056909E+02-3.637745393E+00+
*       -6.231927879E+02               0
GRID*               6480               01.2217194961E+02-5.393313613E+00+
*       -6.264015391E+02               0
GRID*               6481               01.0981308934E+02-6.562328500E+00+
*       -6.296044049E+02               0
GRID*               6482               09.7409680990E+01-7.167914310E+00+
*       -6.327997650E+02               0
GRID*               6483               08.4970297333E+01-7.417020470E+00+
*       -6.359841601E+02               0
GRID*               6484               01.3416938046E+02-3.635718720E+00+
*       -6.125635250E+02               0
GRID*               6485               01.2196074961E+02-5.385342287E+00+
*       -6.158044635E+02               0
GRID*               6486               01.0965161509E+02-6.549079173E+00+
*       -6.190393946E+02               0
GRID*               6487               09.7298025588E+01-7.150367028E+00+
*       -6.222666791E+02               0
GRID*               6488               08.4907969132E+01-7.392780104E+00+
*       -6.254829061E+02               0
GRID*               6489               01.3390820169E+02-3.633734968E+00+
*       -6.019342632E+02               0
GRID*               6490               01.2174955227E+02-5.377359723E+00+
*       -6.052073902E+02               0
GRID*               6491               01.0949014523E+02-6.535828710E+00+
*       -6.084743870E+02               0
GRID*               6492               09.7186373977E+01-7.132814428E+00+
*       -6.117335956E+02               0
GRID*               6493               08.4845618608E+01-7.368067970E+00+
*       -6.149816595E+02               0
GRID*               6494               01.3364703283E+02-3.631794537E+00+
*       -5.913050025E+02               0
GRID*               6495               01.2153835747E+02-5.369365191E+00+
*       -5.946103192E+02               0
GRID*               6496               01.0932867975E+02-6.522577152E+00+
*       -5.979093821E+02               0
GRID*               6497               09.7074726132E+01-7.115256463E+00+
*       -6.012005147E+02               0
GRID*               6498               08.4783248417E+01-7.342935704E+00+
*       -6.044804198E+02               0
GRID*               6499               01.3338587392E+02-3.629897823E+00+
*       -5.806757427E+02               0
GRID*               6500               01.2132716511E+02-5.361357947E+00+
*       -5.840132505E+02               0
GRID*               6501               01.0916721862E+02-6.509324559E+00+
*       -5.873443800E+02               0
GRID*               6502               09.6963082023E+01-7.097693087E+00+
*       -5.906674361E+02               0
GRID*               6503               08.4720861124E+01-7.317433100E+00+
*       -5.939791861E+02               0
GRID*               6504               01.3312472504E+02-3.628045220E+00+
*       -5.700464840E+02               0
GRID*               6505               01.2111597506E+02-5.353337233E+00+
*       -5.734161841E+02               0
GRID*               6506               01.0900576180E+02-6.496071008E+00+
*       -5.767793806E+02               0
GRID*               6507               09.6851441624E+01-7.080124250E+00+
*       -5.801343600E+02               0
GRID*               6508               08.4658459198E+01-7.291608165E+00+
*       -5.834779580E+02               0
GRID*               6509               01.3286358622E+02-3.626237120E+00+
*       -5.594172263E+02               0
GRID*               6510               01.2090478721E+02-5.345302276E+00+
*       -5.628191200E+02               0
GRID*               6511               01.0884430927E+02-6.482816598E+00+
*       -5.662143838E+02               0
GRID*               6512               09.6739804904E+01-7.062549903E+00+
*       -5.696012863E+02               0
GRID*               6513               08.4596045019E+01-7.265507178E+00+
*       -5.729767348E+02               0
GRID*               6514               01.3260245754E+02-3.624473912E+00+
*       -5.487879696E+02               0
GRID*               6515               01.2069360145E+02-5.337252290E+00+
*       -5.522220581E+02               0
GRID*               6516               01.0868286100E+02-6.469561451E+00+
*       -5.556493897E+02               0
GRID*               6517               09.6628171837E+01-7.044969994E+00+
*       -5.590682149E+02               0
GRID*               6518               08.4533620883E+01-7.239174747E+00+
*       -5.624755159E+02               0
GRID*               6519               01.3234133904E+02-3.622755981E+00+
*       -5.381587139E+02               0
GRID*               6520               01.2048241765E+02-5.329186474E+00+
*       -5.416249984E+02               0
GRID*               6521               01.0852141696E+02-6.456305711E+00+
*       -5.450843982E+02               0
GRID*               6522               09.6516542390E+01-7.027384469E+00+
*       -5.485351459E+02               0
GRID*               6523               08.4471188998E+01-7.212653859E+00+
*       -5.519743008E+02               0
GRID*               6524               01.3208023077E+02-3.621083714E+00+
*       -5.275294592E+02               0
GRID*               6525               01.2027123569E+02-5.321104011E+00+
*       -5.310279410E+02               0
GRID*               6526               01.0835997712E+02-6.443049546E+00+
*       -5.345194093E+02               0
GRID*               6527               09.6404916536E+01-7.009793274E+00+
*       -5.380020792E+02               0
GRID*               6528               08.4408751496E+01-7.185985937E+00+
*       -5.414730889E+02               0
GRID*               6529               01.3181913280E+02-3.619457493E+00+
*       -5.169002054E+02               0
GRID*               6530               01.2006005544E+02-5.313004072E+00+
*       -5.204308857E+02               0
GRID*               6531               01.0819854145E+02-6.429793154E+00+
*       -5.239544229E+02               0
GRID*               6532               09.6293294243E+01-6.992196351E+00+
*       -5.274690148E+02               0
GRID*               6533               08.4346310425E+01-7.159210889E+00+
*       -5.309718797E+02               0
GRID*               6534               01.3155804517E+02-3.617877697E+00+
*       -5.062709525E+02               0
GRID*               6535               01.1984887678E+02-5.304885809E+00+
*       -5.098338326E+02               0
GRID*               6536               01.0803714568E+02-6.416738727E+00+
*       -5.133894400E+02               0
GRID*               6537               09.6181675480E+01-6.974593641E+00+
*       -5.169359527E+02               0
GRID*               6538               08.4283867761E+01-7.132367160E+00+
*       -5.204706727E+02               0
GRID*               6539               01.3129696794E+02-3.616344705E+00+
*       -4.956417006E+02               0
GRID*               6540               01.1963769957E+02-5.296748362E+00+
*       -4.992367816E+02               0
GRID*               6541               01.0787584401E+02-6.405445424E+00+
*       -5.028244705E+02               0
GRID*               6542               09.6070060215E+01-6.956985081E+00+
*       -5.064028928E+02               0
GRID*               6543               08.4221425407E+01-7.105491781E+00+
*       -5.099694675E+02               0
GRID*               6544               01.3103590117E+02-3.614858894E+00+
*       -4.850124496E+02               0
GRID*               6545               01.1942652369E+02-5.288590852E+00+
*       -4.886397328E+02               0
GRID*               6546               01.0771460340E+02-6.396120408E+00+
*       -4.922595161E+02               0
GRID*               6547               09.5958455600E+01-6.939520416E+00+
*       -4.958698347E+02               0
GRID*               6548               08.4158985192E+01-7.078620417E+00+
*       -4.994682635E+02               0
GRID*               6549               01.3077484490E+02-3.613420637E+00+
*       -4.743831995E+02               0
GRID*               6550               01.1921534900E+02-5.280412384E+00+
*       -4.780426861E+02               0
GRID*               6551               01.0755341947E+02-6.388617355E+00+
*       -4.816945759E+02               0
GRID*               6552               09.5846866551E+01-6.922435901E+00+
*       -4.853367779E+02               0
GRID*               6553               08.4096548879E+01-7.051787413E+00+
*       -4.889670603E+02               0
GRID*               6554               01.3051379918E+02-3.612030308E+00+
*       -4.637539502E+02               0
GRID*               6555               01.1900417537E+02-5.272212044E+00+
*       -4.674456415E+02               0
GRID*               6556               01.0739228793E+02-6.382792500E+00+
*       -4.711296491E+02               0
GRID*               6557               09.5735291663E+01-6.905702990E+00+
*       -4.748037226E+02               0
GRID*               6558               08.4034118165E+01-7.025025844E+00+
*       -4.784658574E+02               0
GRID*               6559               01.3025276408E+02-3.610688277E+00+
*       -4.531247019E+02               0
GRID*               6560               01.1879300265E+02-5.263988898E+00+
*       -4.568485989E+02               0
GRID*               6561               01.0723120454E+02-6.378504578E+00+
*       -4.605647347E+02               0
GRID*               6562               09.5623729883E+01-6.889289883E+00+
*       -4.642706688E+02               0
GRID*               6563               08.3971694682E+01-6.998367557E+00+
*       -4.679646545E+02               0
GRID*               6564               01.2999173963E+02-3.609394911E+00+
*       -4.424954543E+02               0
GRID*               6565               01.1858183070E+02-5.255741993E+00+
*       -4.462515583E+02               0
GRID*               6566               01.0707016515E+02-6.375614760E+00+
*       -4.499998319E+02               0
GRID*               6567               09.5512180192E+01-6.873165909E+00+
*       -4.537376166E+02               0
GRID*               6568               08.3909280003E+01-6.971843218E+00+
*       -4.574634511E+02               0
GRID*               6569               01.2973072590E+02-3.608150578E+00+
*       -4.318662076E+02               0
GRID*               6570               01.1837065937E+02-5.247470353E+00+
*       -4.356545198E+02               0
GRID*               6571               01.0690916566E+02-6.373986592E+00+
*       -4.394349397E+02               0
GRID*               6572               09.5400641605E+01-6.857301481E+00+
*       -4.432045659E+02               0
GRID*               6573               08.3846875639E+01-6.945482354E+00+
*       -4.469622469E+02               0
GRID*               6574               01.2946972293E+02-3.606955641E+00+
*       -4.212369618E+02               0
GRID*               6575               01.1815948852E+02-5.239172978E+00+
*       -4.250574833E+02               0
GRID*               6576               01.0674820206E+02-6.373485931E+00+
*       -4.288700573E+02               0
GRID*               6577               09.5289113172E+01-6.841668055E+00+
*       -4.326715169E+02               0
GRID*               6578               08.3784483048E+01-6.919313399E+00+
*       -4.364610415E+02               0
GRID*               6579               01.2920873078E+02-3.605810462E+00+
*       -4.106077167E+02               0
GRID*               6580               01.1794831799E+02-5.230848840E+00+
*       -4.144604487E+02               0
GRID*               6581               01.0658727038E+02-6.373980883E+00+
*       -4.183051839E+02               0
GRID*               6582               09.5177593972E+01-6.826238092E+00+
*       -4.221384695E+02               0
GRID*               6583               08.3722103629E+01-6.893363735E+00+
*       -4.259598344E+02               0
GRID*               6584               01.2894774948E+02-3.604715400E+00+
*       -3.999784724E+02               0
GRID*               6585               01.1773714763E+02-5.222496884E+00+
*       -4.038634161E+02               0
GRID*               6586               01.0642636674E+02-6.375341746E+00+
*       -4.077403186E+02               0
GRID*               6587               09.5066083114E+01-6.810985019E+00+
*       -4.116054237E+02               0
GRID*               6588               08.3659738730E+01-6.867659735E+00+
*       -4.154586254E+02               0
GRID*               6589               01.2868677909E+02-3.603670814E+00+
*       -3.893492289E+02               0
GRID*               6590               01.1752597726E+02-5.214116024E+00+
*       -3.932663854E+02               0
GRID*               6591               01.0626548728E+02-6.377440939E+00+
*       -3.971754606E+02               0
GRID*               6592               09.4954579725E+01-6.795883189E+00+
*       -4.010723796E+02               0
GRID*               6593               08.3597389643E+01-6.842226803E+00+
*       -4.049574141E+02               0
GRID*               6594               01.2842581963E+02-3.602677062E+00+
*       -3.787199861E+02               0
GRID*               6595               01.1731480667E+02-5.205705143E+00+
*       -3.826693567E+02               0
GRID*               6596               01.0610462817E+02-6.380152944E+00+
*       -3.866106091E+02               0
GRID*               6597               09.4843082922E+01-6.780907855E+00+
*       -3.905393372E+02               0
GRID*               6598               08.3535057592E+01-6.817089421E+00+
*       -3.944562002E+02               0
GRID*               6599               01.2816487104E+02-3.601734507E+00+
*       -3.680907441E+02               0
GRID*               6600               01.1710363554E+02-5.197263092E+00+
*       -3.720723297E+02               0
GRID*               6601               01.0594378554E+02-6.383354234E+00+
*       -3.760457633E+02               0
GRID*               6602               09.4731591768E+01-6.766035132E+00+
*       -3.800062965E+02               0
GRID*               6603               08.3472743716E+01-6.792271185E+00+
*       -3.839549834E+02               0
GRID*               6604               01.2790393321E+02-3.600843521E+00+
*       -3.574615027E+02               0
GRID*               6605               01.1689246340E+02-5.188788694E+00+
*       -3.614753047E+02               0
GRID*               6606               01.0578295538E+02-6.386923210E+00+
*       -3.654809224E+02               0
GRID*               6607               09.4620105206E+01-6.751241972E+00+
*       -3.694732575E+02               0
GRID*               6608               08.3410449028E+01-6.767794851E+00+
*       -3.734537634E+02               0
GRID*               6609               01.2764300591E+02-3.600004488E+00+
*       -3.468322621E+02               0
GRID*               6610               01.1668128960E+02-5.180280739E+00+
*       -3.508782814E+02               0
GRID*               6611               01.0562213353E+02-6.390740128E+00+
*       -3.549160857E+02               0
GRID*               6612               09.4508621958E+01-6.736506139E+00+
*       -3.589402203E+02               0
GRID*               6613               08.3348174349E+01-6.743682378E+00+
*       -3.629525398E+02               0
GRID*               6614               01.2738208886E+02-3.599217793E+00+
*       -3.362030221E+02               0
GRID*               6615               01.1647011335E+02-5.171737972E+00+
*       -3.402812600E+02               0
GRID*               6616               01.0546131559E+02-6.394687034E+00+
*       -3.443512524E+02               0
GRID*               6617               09.4397140405E+01-6.721806192E+00+
*       -3.484071849E+02               0
GRID*               6618               08.3285920167E+01-6.719954971E+00+
*       -3.524513123E+02               0
GRID*               6619               01.2712118181E+02-3.598483816E+00+
*       -3.255737828E+02               0
GRID*               6620               01.1625893379E+02-5.163159078E+00+
*       -3.296842403E+02               0
GRID*               6621               01.0530049698E+02-6.398647709E+00+
*       -3.337864217E+02               0
GRID*               6622               09.4285658400E+01-6.707121460E+00+
*       -3.378741511E+02               0
GRID*               6623               08.3223686275E+01-6.696633133E+00+
*       -3.419500808E+02               0
GRID*               6624               01.2686028464E+02-3.597802912E+00+
*       -3.149445442E+02               0
GRID*               6625               01.1604775024E+02-5.154542647E+00+
*       -3.190872223E+02               0
GRID*               6626               01.0513967317E+02-6.402507627E+00+
*       -3.232215930E+02               0
GRID*               6627               09.4174173174E+01-6.692432026E+00+
*       -3.273411192E+02               0
GRID*               6628               08.3161470753E+01-6.673736735E+00+
*       -3.314488449E+02               0
GRID*               6629               01.2659939744E+02-3.597175398E+00+
*       -3.043153061E+02               0
GRID*               6630               01.1583649086E+02-5.145988406E+00+
*       -3.084902075E+02               0
GRID*               6631               01.0497884023E+02-6.406153937E+00+
*       -3.126567654E+02               0
GRID*               6632               09.4062682046E+01-6.677718630E+00+
*       -3.168080890E+02               0
GRID*               6633               08.3099268543E+01-6.651285086E+00+
*       -3.209476043E+02               0
GRID*               6634               01.2633852049E+02-3.596601556E+00+
*       -2.936860687E+02               0
GRID*               6635               01.1562523202E+02-5.137601221E+00+
*       -2.978931955E+02               0
GRID*               6636               01.0481799547E+02-6.409475451E+00+
*       -3.020919383E+02               0
GRID*               6637               09.3951184818E+01-6.662962428E+00+
*       -3.062750607E+02               0
GRID*               6638               08.3037077256E+01-6.629296764E+00+
*       -3.104463589E+02               0
GRID*               6639               01.2607765416E+02-3.596081651E+00+
*       -2.830568319E+02               0
GRID*               6640               01.1541397814E+02-5.129379742E+00+
*       -2.872961861E+02               0
GRID*               6641               01.0465713702E+02-6.412362534E+00+
*       -2.915271110E+02               0
GRID*               6642               09.3839684381E+01-6.648144921E+00+
*       -2.957420341E+02               0
GRID*               6643               08.2974908683E+01-6.607789353E+00+
*       -2.999451084E+02               0
GRID*               6644               01.2581679874E+02-3.595615942E+00+
*       -2.724275956E+02               0
GRID*               6645               01.1520272971E+02-5.121322151E+00+
*       -2.766991792E+02               0
GRID*               6646               01.0449626255E+02-6.414706937E+00+
*       -2.809622828E+02               0
GRID*               6647               09.3728181587E+01-6.633248374E+00+
*       -2.852090094E+02               0
GRID*               6648               08.2912765634E+01-6.586780257E+00+
*       -2.894438525E+02               0
GRID*               6649               01.2555595446E+02-3.595204687E+00+
*       -2.617983599E+02               0
GRID*               6650               01.1499148699E+02-5.113425968E+00+
*       -2.661021749E+02               0
GRID*               6651               01.0433536946E+02-6.416401738E+00+
*       -2.703974530E+02               0
GRID*               6652               09.3616676688E+01-6.618255667E+00+
*       -2.746759865E+02               0
GRID*               6653               08.2850649857E+01-6.566286455E+00+
*       -2.789425911E+02               0
GRID*               6654               01.2529512148E+02-3.594848141E+00+
*       -2.511691247E+02               0
GRID*               6655               01.1478025014E+02-5.105687988E+00+
*       -2.555051731E+02               0
GRID*               6656               01.0417445494E+02-6.417341278E+00+
*       -2.598326210E+02               0
GRID*               6657               09.3505169609E+01-6.603150242E+00+
*       -2.641429655E+02               0
GRID*               6658               08.2788562640E+01-6.546324518E+00+
*       -2.684413238E+02               0
GRID*               6659               01.2503429991E+02-3.594546548E+00+
*       -2.405398901E+02               0
GRID*               6660               01.1456901914E+02-5.098104189E+00+
*       -2.449081737E+02               0
GRID*               6661               01.0401351610E+02-6.417421100E+00+
*       -2.492677860E+02               0
GRID*               6662               09.3393660087E+01-6.587916072E+00+
*       -2.536099462E+02               0
GRID*               6663               08.2726505046E+01-6.526910648E+00+
*       -2.579400505E+02               0
GRID*               6664               01.2477348982E+02-3.594300140E+00+
*       -2.299106559E+02               0
GRID*               6665               01.1435779392E+02-5.090669646E+00+
*       -2.343111767E+02               0
GRID*               6666               01.0385254995E+02-6.416537880E+00+
*       -2.387029473E+02               0
GRID*               6667               09.3282147753E+01-6.572537620E+00+
*       -2.430769288E+02               0
GRID*               6668               08.2664478014E+01-6.508060717E+00+
*       -2.474387709E+02               0
GRID*               6669               01.2451269127E+02-3.594109127E+00+
*       -2.192814222E+02               0
GRID*               6670               01.1414657430E+02-5.083378419E+00+
*       -2.237141820E+02               0
GRID*               6671               01.0369155348E+02-6.414589358E+00+
*       -2.281381044E+02               0
GRID*               6672               09.3170632180E+01-6.556999816E+00+
*       -2.325439131E+02               0
GRID*               6673               08.2602482411E+01-6.489790314E+00+
*       -2.369374848E+02               0
GRID*               6674               01.2425190427E+02-3.593973695E+00+
*       -2.086521890E+02               0
GRID*               6675               01.1393536006E+02-5.076223433E+00+
*       -2.131171895E+02               0
GRID*               6676               01.0353052367E+02-6.411474267E+00+
*       -2.175732565E+02               0
GRID*               6677               09.3059112910E+01-6.541288025E+00+
*       -2.220108993E+02               0
GRID*               6678               08.2540519057E+01-6.472114795E+00+
*       -2.264361920E+02               0
GRID*               6679               01.2399112886E+02-3.593893998E+00+
*       -1.980229562E+02               0
GRID*               6680               01.1372415090E+02-5.069196339E+00+
*       -2.025201992E+02               0
GRID*               6681               01.0336945748E+02-6.407092260E+00+
*       -2.070084031E+02               0
GRID*               6682               09.2947589473E+01-6.525388022E+00+
*       -2.114778873E+02               0
GRID*               6683               08.2478588748E+01-6.455049332E+00+
*       -2.159348923E+02               0
GRID*               6684               01.2373036505E+02-3.593870150E+00+
*       -1.873937238E+02               0
GRID*               6685               01.1351294651E+02-5.062287351E+00+
*       -1.919232110E+02               0
GRID*               6686               01.0320835192E+02-6.401343830E+00+
*       -1.964435435E+02               0
GRID*               6687               09.2836061397E+01-6.509285971E+00+
*       -2.009448771E+02               0
GRID*               6688               08.2416692257E+01-6.438608967E+00+
*       -2.054335855E+02               0
GRID*               6689               01.2346961283E+02-3.593902216E+00+
*       -1.767644919E+02               0
GRID*               6690               01.1330174650E+02-5.055485064E+00+
*       -1.813262247E+02               0
GRID*               6691               01.0304720399E+02-6.394130233E+00+
*       -1.858786770E+02               0
GRID*               6692               09.2724528212E+01-6.492968393E+00+
*       -1.904118686E+02               0
GRID*               6693               08.2354830351E+01-6.422808668E+00+
*       -1.949322713E+02               0
GRID*               6694               01.2320887221E+02-3.593990202E+00+
*       -1.661352603E+02               0
GRID*               6695               01.1309055041E+02-5.048776240E+00+
*       -1.707292403E+02               0
GRID*               6696               01.0288601070E+02-6.385353409E+00+
*       -1.753138030E+02               0
GRID*               6697               09.2612989456E+01-6.476422145E+00+
*       -1.798788619E+02               0
GRID*               6698               08.2293003793E+01-6.407663388E+00+
*       -1.844309496E+02               0
GRID*               6699               01.2294814316E+02-3.594134038E+00+
*       -1.555060290E+02               0
GRID*               6700               01.1287935774E+02-5.042145558E+00+
*       -1.601322576E+02               0
GRID*               6701               01.0272476910E+02-6.374915896E+00+
*       -1.647489209E+02               0
GRID*               6702               09.2501444674E+01-6.459634396E+00+
*       -1.693458570E+02               0
GRID*               6703               08.2231213346E+01-6.393188125E+00+
*       -1.739296202E+02               0
GRID*               6704               01.2268742565E+02-3.594333560E+00+
*       -1.448767981E+02               0
GRID*               6705               01.1266816790E+02-5.035575323E+00+
*       -1.495352765E+02               0
GRID*               6706               01.0256347623E+02-6.362720741E+00+
*       -1.541840301E+02               0
GRID*               6707               09.2389893419E+01-6.442592603E+00+
*       -1.588128539E+02               0
GRID*               6708               08.2169459779E+01-6.379397988E+00+
*       -1.634282828E+02               0
GRID*               6709               01.2242671964E+02-3.594588485E+00+
*       -1.342475675E+02               0
GRID*               6710               01.1245698024E+02-5.029045124E+00+
*       -1.389382969E+02               0
GRID*               6711               01.0240212914E+02-6.348671419E+00+
*       -1.436191299E+02               0
GRID*               6712               09.2278335246E+01-6.425284484E+00+
*       -1.482798525E+02               0
GRID*               6713               08.2107743867E+01-6.366308268E+00+
*       -1.529269372E+02               0
GRID*               6714               01.2216602504E+02-3.594898378E+00+
*       -1.236183372E+02               0
GRID*               6715               01.1224579397E+02-5.022531434E+00+
*       -1.283413186E+02               0
GRID*               6716               01.0224072489E+02-6.332671733E+00+
*       -1.330542197E+02               0
GRID*               6717               09.2166769708E+01-6.407697996E+00+
*       -1.377468529E+02               0
GRID*               6718               08.2046066397E+01-6.353934508E+00+
*       -1.424255832E+02               0
GRID*               6719               01.2190534173E+02-3.595262608E+00+
*       -1.129891072E+02               0
GRID*               6720               01.1203460816E+02-5.016007130E+00+
*       -1.177443413E+02               0
GRID*               6721               01.0207926049E+02-6.314625723E+00+
*       -1.224892990E+02               0
GRID*               6722               09.2055196337E+01-6.389821313E+00+
*       -1.272138549E+02               0
GRID*               6723               08.1984428159E+01-6.342292586E+00+
*       -1.319242206E+02               0
GRID*               6724               01.2164466948E+02-3.595680290E+00+
*       -1.023598774E+02               0
GRID*               6725               01.1182342171E+02-5.009440930E+00+
*       -1.071473649E+02               0
GRID*               6726               01.0191773290E+02-6.294437568E+00+
*       -1.119243670E+02               0
GRID*               6727               09.1943614615E+01-6.371642797E+00+
*       -1.166808587E+02               0
GRID*               6728               08.1922829937E+01-6.331398795E+00+
*       -1.214228491E+02               0
GRID*               6729               01.2138400802E+02-3.596150194E+00+
*       -9.173064785E+01               0
GRID*               6730               01.1161223329E+02-5.002796705E+00+
*       -9.655038912E+01               0
GRID*               6731               01.0175613896E+02-6.272011482E+00+
*       -1.013594232E+02               0
GRID*               6732               09.1832023927E+01-6.353150978E+00+
*       -1.061478643E+02               0
GRID*               6733               08.1861272484E+01-6.321269935E+00+
*       -1.109214686E+02               0
GRID*               6734               01.2112335697E+02-3.596670620E+00+
*       -8.110141854E+01               0
GRID*               6735               01.1140104133E+02-4.996032649E+00+
*       -8.595341370E+01               0
GRID*               6736               01.0159447539E+02-6.247251617E+00+
*       -9.079446693E+01               0
GRID*               6737               09.1720423501E+01-6.334334530E+00+
*       -9.561487145E+01               0
GRID*               6738               08.1799756466E+01-6.311923412E+00+
*       -1.004200787E+02               0
GRID*               6739               01.2086271586E+02-3.597239203E+00+
*       -7.047218943E+01               0
GRID*               6740               01.1118984403E+02-4.989100264E+00+
*       -7.535643830E+01               0
GRID*               6741               01.0143273880E+02-6.220061949E+00+
*       -8.022949763E+01               0
GRID*               6742               09.1608812307E+01-6.315182247E+00+
*       -8.508188031E+01               0
GRID*               6743               08.1738282292E+01-6.303377343E+00+
*       -8.991867928E+01               0
GRID*               6744               01.2060208418E+02-3.597852633E+00+
*       -5.984296051E+01               0
GRID*               6745               01.1097863946E+02-4.981943106E+00+
*       -6.475946258E+01               0
GRID*               6746               01.0127092580E+02-6.190346163E+00+
*       -6.966451465E+01               0
GRID*               6747               09.1497189041E+01-6.295683014E+00+
*       -7.454889084E+01               0
GRID*               6748               08.1676849636E+01-6.295650671E+00+
*       -7.941727001E+01               0
GRID*               6749               01.2034146134E+02-3.598506218E+00+
*       -4.921373178E+01               0
GRID*               6750               01.1076742562E+02-4.974495251E+00+
*       -5.416248610E+01               0
GRID*               6751               01.0110903331E+02-6.158007528E+00+
*       -5.909951737E+01               0
GRID*               6752               09.1385552565E+01-6.275825758E+00+
*       -6.401590303E+01               0
GRID*               6753               08.1615457042E+01-6.288763291E+00+
*       -6.891585063E+01               0
GRID*               6754               01.2008086454E+02-3.598518486E+00+
*       -3.858450995E+01               0
GRID*               6755               01.1055620038E+02-4.966679413E+00+
*       -4.356550841E+01               0
GRID*               6756               01.0094705876E+02-6.122948754E+00+
*       -4.853450519E+01               0
GRID*               6757               09.1273902971E+01-6.255599372E+00+
*       -5.348291686E+01               0
GRID*               6758               08.1554105197E+01-6.282736186E+00+
*       -5.841442087E+01               0
GRID*               6759               01.1981976256E+02-3.594923869E+00+
*       -2.795533332E+01               0
GRID*               6760               01.1034496008E+02-4.958404823E+00+
*       -3.296852807E+01               0
GRID*               6761               01.0078499863E+02-6.085071890E+00+
*       -3.796947666E+01               0
GRID*               6762               09.1162240436E+01-6.234992743E+00+
*       -4.294993173E+01               0
GRID*               6763               08.1492798893E+01-6.277591568E+00+
*       -4.791298017E+01               0
GRID*               6764               01.1955825579E+02-3.589128984E+00+
*       -1.732617839E+01               0
GRID*               6765               01.1013368725E+02-4.949566221E+00+
*       -2.237153385E+01               0
GRID*               6766               01.0062283643E+02-6.044278600E+00+
*       -2.740442129E+01               0
GRID*               6767               09.1050555631E+01-6.213995109E+00+
*       -3.241694104E+01               0
GRID*               6768               08.1431536184E+01-6.273353069E+00+
*       -3.741152562E+01               0
GRID*               6769               01.1929658472E+02-3.582858451E+00+
*       -6.696977102E+00               0
GRID*               6770               01.0992229296E+02-4.940048693E+00+
*       -1.177446258E+01               0
GRID*               6771               01.0046049011E+02-6.000472222E+00+
*       -1.683928171E+01               0
GRID*               6772               09.0938796325E+01-6.192597249E+00+
*       -2.188390798E+01               0
GRID*               6773               08.1370297890E+01-6.270045959E+00+
*       -2.691004231E+01               0
GRID*               6774               01.1903476590E+02-3.577555919E+00+
*       3.9324619308E+00               0
GRID*               6775               01.0971045069E+02-4.929745168E+00+
*       -1.177077387E+00               0
GRID*               6776               01.0029765819E+02-5.953565119E+00+
*       -6.273842568E+00               0
GRID*               6777               09.0826763481E+01-6.170795046E+00+
*       -1.135069137E+01               0
GRID*               6778               08.1309004405E+01-6.267697589E+00+
*       -1.640847263E+01               0
GRID*               6779               01.1877238329E+02-3.574494439E+00+
*       1.4562621949E+01               0
GRID*               6780               01.0949726655E+02-4.918586830E+00+
*       9.4212766231E+00               0
GRID*               6781               01.0013348951E+02-5.903496985E+00+
*       4.2925095936E+00               0
GRID*               6782               09.0713869597E+01-6.148597293E+00+
*       -8.168726746E-01               0
GRID*               6783               08.1247407670E+01-6.266338428E+00+
*       -5.906639426E+00               0
GRID*               6784               01.1850831698E+02-3.574859412E+00+
*       2.5194493484E+01               0
GRID*               6785               01.0928079788E+02-4.906570270E+00+
*       2.0022036500E+01               0
GRID*               6786               09.9966027754E+01-5.850269827E+00+
*       1.4861194415E+01               0
GRID*               6787               09.0598670683E+01-6.126039931E+00+
*       9.7185797432E+00               0
GRID*               6788               08.1184856951E+01-6.266004681E+00+
*       4.5959202087E+00               0
GRID*               6789               01.1824054360E+02-3.579771966E+00+
*       3.5829735944E+01               0
GRID*               6790               01.0905755338E+02-4.893745992E+00+
*       3.0627821305E+01               0
GRID*               6791               09.9791456301E+01-5.794001330E+00+
*       2.5435003463E+01               0
GRID*               6792               09.0478052956E+01-6.103209546E+00+
*       2.0257893537E+01               0
GRID*               6793               08.1119804964E+01-6.266744831E+00+
*       1.5100302999E+01               0
GRID*               6794               01.1796621576E+02-3.590230495E+00+
*       4.6470610476E+01               0
GRID*               6795               01.0882224402E+02-4.880126614E+00+
*       4.1242697805E+01               0
GRID*               6796               09.9603320264E+01-5.734987551E+00+
*       3.6018717292E+01               0
GRID*               6797               09.0345908179E+01-6.080280387E+00+
*       3.0805440360E+01               0
GRID*               6798               08.1048678075E+01-6.268636280E+00+
*       2.5609027436E+01               0
GRID*               6799               01.1768227371E+02-3.606971995E+00+
*       5.7119372404E+01               0
GRID*               6800               01.0856814363E+02-4.865498734E+00+
*       5.1872101573E+01               0
GRID*               6801               09.9392265432E+01-5.673740460E+00+
*       4.6619445995E+01               0
GRID*               6802               09.0191286256E+01-6.057565429E+00+
*       4.1369065113E+01               0
GRID*               6803               08.0962918342E+01-6.271831112E+00+
*       3.6128076285E+01               0
GRID*               6804               06.2804687059E+00-2.365839282E+00+
*       1.1260302373E+00               0
GRID*                663               01.3612004089E+025.0749278069E+00+
*       7.6088943481E+01               0
GRID*                493               01.4372307921E+022.9289915049E+00+
*       8.0478553252E+01               0
GRID*                494               01.5145618176E+021.5668753610E+00+
*       8.4943258268E+01               0
GRID*                664               01.8376554871E+027.1708064079E+00+
*       -1.686128174E+03               0
GRID*               3817               01.6930244905E+021.0172783781E+01+
*       -1.686128174E+03               0
GRID*               3818               01.5474584200E+021.2680209419E+01+
*       -1.686128174E+03               0
GRID*               3819               01.4010069687E+021.4598214508E+01+
*       -1.686128174E+03               0
GRID*               3820               01.2539315649E+021.5982206285E+01+
*       -1.686128174E+03               0
GRID*               3821               01.1065376670E+021.6943557545E+01+
*       -1.686128174E+03               0
GRID*               3822               09.5899533040E+011.7668815884E+01+
*       -1.686128174E+03               0
GRID*               3823               08.1137602263E+011.8210326083E+01+
*       -1.686128174E+03               0
GRID*                497               01.3640881016E+025.0876668823E+00+
*       6.7893688501E+01               0
GRID*                498               01.3669757943E+025.1004059578E+00+
*       5.7198433521E+01               0
GRID*                499               01.3698634870E+025.1131450332E+00+
*       4.6503178541E+01               0
GRID*                500               01.3727511797E+025.1258841087E+00+
*       3.5807923560E+01               0
GRID*                501               01.3756388724E+025.1386231842E+00+
*       2.5112668580E+01               0
GRID*                502               01.3785265651E+025.1513622596E+00+
*       1.4417413600E+01               0
GRID*                503               01.3814142578E+025.1641013351E+00+
*       3.7221586197E+00               0
GRID*                504               01.3843019505E+025.1768404105E+00+
*       -6.973096361E+00               0
GRID*                505               01.3871896432E+025.1895794860E+00+
*       -1.766835134E+01               0
GRID*                506               01.3900773359E+025.2023185615E+00+
*       -2.836360632E+01               0
GRID*                507               01.3929650286E+025.2150576369E+00+
*       -3.905886130E+01               0
GRID*                508               01.3958527213E+025.2277967124E+00+
*       -4.975411628E+01               0
GRID*                509               01.3987404140E+025.2405357878E+00+
*       -6.044937126E+01               0
GRID*                510               01.4016281067E+025.2532748633E+00+
*       -7.114462624E+01               0
GRID*                511               01.4045157993E+025.2660139388E+00+
*       -8.183988122E+01               0
GRID*                512               01.4074034920E+025.2787530142E+00+
*       -9.253513620E+01               0
GRID*                513               01.4102911847E+025.2914920897E+00+
*       -1.032303912E+02               0
GRID*                514               01.4131788774E+025.3042311651E+00+
*       -1.139256462E+02               0
GRID*                515               01.4160665701E+025.3169702406E+00+
*       -1.246209011E+02               0
GRID*                516               01.4189542628E+025.3297093161E+00+
*       -1.353161561E+02               0
GRID*                517               01.4218419555E+025.3424483915E+00+
*       -1.460114111E+02               0
GRID*                518               01.4247296482E+025.3551874670E+00+
*       -1.567066661E+02               0
GRID*                519               01.4276173409E+025.3679265424E+00+
*       -1.674019211E+02               0
GRID*                520               01.4305050336E+025.3806656179E+00+
*       -1.780971760E+02               0
GRID*                521               01.4333927263E+025.3934046934E+00+
*       -1.887924310E+02               0
GRID*                522               01.4362804190E+025.4061437688E+00+
*       -1.994876860E+02               0
GRID*                523               01.4391681117E+025.4188828443E+00+
*       -2.101829410E+02               0
GRID*                524               01.4420558044E+025.4316219197E+00+
*       -2.208781960E+02               0
GRID*                525               01.4449434971E+025.4443609952E+00+
*       -2.315734509E+02               0
GRID*                526               01.4478311898E+025.4571000707E+00+
*       -2.422687059E+02               0
GRID*                527               01.4507188824E+025.4698391461E+00+
*       -2.529639609E+02               0
GRID*                528               01.4536065751E+025.4825782216E+00+
*       -2.636592159E+02               0
GRID*                529               01.4564942678E+025.4953172970E+00+
*       -2.743544709E+02               0
GRID*                530               01.4593819605E+025.5080563725E+00+
*       -2.850497258E+02               0
GRID*                531               01.4622696532E+025.5207954480E+00+
*       -2.957449808E+02               0
GRID*                532               01.4651573459E+025.5335345234E+00+
*       -3.064402358E+02               0
GRID*                533               01.4680450386E+025.5462735989E+00+
*       -3.171354908E+02               0
GRID*                534               01.4709327313E+025.5590126743E+00+
*       -3.278307458E+02               0
GRID*                535               01.4738204240E+025.5717517498E+00+
*       -3.385260007E+02               0
GRID*                536               01.4767081167E+025.5844908253E+00+
*       -3.492212557E+02               0
GRID*                537               01.4795958094E+025.5972299007E+00+
*       -3.599165107E+02               0
GRID*                538               01.4824835021E+025.6099689762E+00+
*       -3.706117657E+02               0
GRID*                539               01.4853711948E+025.6227080517E+00+
*       -3.813070207E+02               0
GRID*                540               01.4882588875E+025.6354471271E+00+
*       -3.920022756E+02               0
GRID*                541               01.4911465802E+025.6481862026E+00+
*       -4.026975306E+02               0
GRID*                542               01.4940342729E+025.6609252780E+00+
*       -4.133927856E+02               0
GRID*                543               01.4969219655E+025.6736643535E+00+
*       -4.240880406E+02               0
GRID*                544               01.4998096582E+025.6864034290E+00+
*       -4.347832956E+02               0
GRID*                545               01.5026973509E+025.6991425044E+00+
*       -4.454785506E+02               0
GRID*                546               01.5055850436E+025.7118815799E+00+
*       -4.561738055E+02               0
GRID*                547               01.5084727363E+025.7246206553E+00+
*       -4.668690605E+02               0
GRID*                548               01.5113604290E+025.7373597308E+00+
*       -4.775643155E+02               0
GRID*                549               01.5142481217E+025.7500988063E+00+
*       -4.882595705E+02               0
GRID*                550               01.5171358144E+025.7628378817E+00+
*       -4.989548255E+02               0
GRID*                551               01.5200235071E+025.7755769572E+00+
*       -5.096500804E+02               0
GRID*                552               01.5229111998E+025.7883160326E+00+
*       -5.203453354E+02               0
GRID*                553               01.5257988925E+025.8010551081E+00+
*       -5.310405904E+02               0
GRID*                554               01.5286865852E+025.8137941836E+00+
*       -5.417358454E+02               0
GRID*                555               01.5315742779E+025.8265332590E+00+
*       -5.524311004E+02               0
GRID*                556               01.5344619706E+025.8392723345E+00+
*       -5.631263553E+02               0
GRID*                557               01.5373496633E+025.8520114099E+00+
*       -5.738216103E+02               0
GRID*                558               01.5402373560E+025.8647504854E+00+
*       -5.845168653E+02               0
GRID*                559               01.5431250487E+025.8774895609E+00+
*       -5.952121203E+02               0
GRID*                560               01.5460127413E+025.8902286363E+00+
*       -6.059073753E+02               0
GRID*                561               01.5489004340E+025.9029677118E+00+
*       -6.166026302E+02               0
GRID*                562               01.5517881267E+025.9157067872E+00+
*       -6.272978852E+02               0
GRID*                563               01.5546758194E+025.9284458627E+00+
*       -6.379931402E+02               0
GRID*                564               01.5575635121E+025.9411849382E+00+
*       -6.486883952E+02               0
GRID*                565               01.5604512048E+025.9539240136E+00+
*       -6.593836502E+02               0
GRID*                566               01.5633388975E+025.9666630891E+00+
*       -6.700789051E+02               0
GRID*                567               01.5662265902E+025.9794021645E+00+
*       -6.807741601E+02               0
GRID*                568               01.5691142829E+025.9921412400E+00+
*       -6.914694151E+02               0
GRID*                569               01.5720019756E+026.0048803155E+00+
*       -7.021646701E+02               0
GRID*                570               01.5748896683E+026.0176193909E+00+
*       -7.128599251E+02               0
GRID*                571               01.5777773610E+026.0303584664E+00+
*       -7.235551800E+02               0
GRID*                572               01.5806650537E+026.0430975418E+00+
*       -7.342504350E+02               0
GRID*                573               01.5835527464E+026.0558366173E+00+
*       -7.449456900E+02               0
GRID*                574               01.5864404391E+026.0685756928E+00+
*       -7.556409450E+02               0
GRID*                575               01.5893281318E+026.0813147682E+00+
*       -7.663362000E+02               0
GRID*                576               01.5922158244E+026.0940538437E+00+
*       -7.770314549E+02               0
GRID*                577               01.5951035171E+026.1067929191E+00+
*       -7.877267099E+02               0
GRID*                578               01.5979912098E+026.1195319946E+00+
*       -7.984219649E+02               0
GRID*                579               01.6008789025E+026.1322710701E+00+
*       -8.091172199E+02               0
GRID*                580               01.6037665952E+026.1450101455E+00+
*       -8.198124749E+02               0
GRID*                581               01.6066542879E+026.1577492210E+00+
*       -8.305077298E+02               0
GRID*                582               01.6095419806E+026.1704882964E+00+
*       -8.412029848E+02               0
GRID*                583               01.6124296733E+026.1832273719E+00+
*       -8.518982398E+02               0
GRID*                584               01.6153173660E+026.1959664474E+00+
*       -8.625934948E+02               0
GRID*                585               01.6182050587E+026.2087055228E+00+
*       -8.732887498E+02               0
GRID*                586               01.6210927514E+026.2214445983E+00+
*       -8.839840047E+02               0
GRID*                587               01.6239804441E+026.2341836738E+00+
*       -8.946792597E+02               0
GRID*                588               01.6268681368E+026.2469227492E+00+
*       -9.053745147E+02               0
GRID*                589               01.6297558295E+026.2596618247E+00+
*       -9.160697697E+02               0
GRID*                590               01.6326435222E+026.2724009001E+00+
*       -9.267650247E+02               0
GRID*                591               01.6355312149E+026.2851399756E+00+
*       -9.374602796E+02               0
GRID*                592               01.6384189076E+026.2978790511E+00+
*       -9.481555346E+02               0
GRID*                593               01.6413066002E+026.3106181265E+00+
*       -9.588507896E+02               0
GRID*                594               01.6441942929E+026.3233572020E+00+
*       -9.695460446E+02               0
GRID*                595               01.6470819856E+026.3360962774E+00+
*       -9.802412996E+02               0
GRID*                596               01.6499696783E+026.3488353529E+00+
*       -9.909365545E+02               0
GRID*                597               01.6528573710E+026.3615744284E+00+
*       -1.001631810E+03               0
GRID*                598               01.6557450637E+026.3743135038E+00+
*       -1.012327065E+03               0
GRID*                599               01.6586327564E+026.3870525793E+00+
*       -1.023022319E+03               0
GRID*                600               01.6615204491E+026.3997916547E+00+
*       -1.033717574E+03               0
GRID*                601               01.6644081418E+026.4125307302E+00+
*       -1.044412829E+03               0
GRID*                602               01.6672958345E+026.4252698057E+00+
*       -1.055108084E+03               0
GRID*                603               01.6701835272E+026.4380088811E+00+
*       -1.065803339E+03               0
GRID*                604               01.6730712199E+026.4507479566E+00+
*       -1.076498594E+03               0
GRID*                605               01.6759589126E+026.4634870320E+00+
*       -1.087193849E+03               0
GRID*                606               01.6788466053E+026.4762261075E+00+
*       -1.097889104E+03               0
GRID*                607               01.6817342980E+026.4889651830E+00+
*       -1.108584359E+03               0
GRID*                608               01.6846219907E+026.5017042584E+00+
*       -1.119279614E+03               0
GRID*                609               01.6875096833E+026.5144433339E+00+
*       -1.129974869E+03               0
GRID*                610               01.6903973760E+026.5271824093E+00+
*       -1.140670124E+03               0
GRID*                611               01.6932850687E+026.5399214848E+00+
*       -1.151365379E+03               0
GRID*                612               01.6961727614E+026.5526605603E+00+
*       -1.162060634E+03               0
GRID*                613               01.6990604541E+026.5653996357E+00+
*       -1.172755889E+03               0
GRID*                614               01.7019481468E+026.5781387112E+00+
*       -1.183451144E+03               0
GRID*                615               01.7048358395E+026.5908777866E+00+
*       -1.194146399E+03               0
GRID*                616               01.7077235322E+026.6036168621E+00+
*       -1.204841654E+03               0
GRID*                617               01.7106112249E+026.6163559376E+00+
*       -1.215536909E+03               0
GRID*                618               01.7134989176E+026.6290950130E+00+
*       -1.226232164E+03               0
GRID*                619               01.7163866103E+026.6418340885E+00+
*       -1.236927419E+03               0
GRID*                620               01.7192741661E+026.6545147336E+00+
*       -1.247622675E+03               0
GRID*                621               01.7221615154E+026.6671072135E+00+
*       -1.258317931E+03               0
GRID*                622               01.7250488647E+026.6796996933E+00+
*       -1.269013187E+03               0
GRID*                623               01.7279362140E+026.6922921732E+00+
*       -1.279708443E+03               0
GRID*                624               01.7308235633E+026.7048846531E+00+
*       -1.290403699E+03               0
GRID*                625               01.7337109126E+026.7174771329E+00+
*       -1.301098955E+03               0
GRID*                626               01.7365982619E+026.7300696128E+00+
*       -1.311794211E+03               0
GRID*                627               01.7394856111E+026.7426620926E+00+
*       -1.322489467E+03               0
GRID*                628               01.7423729604E+026.7552545725E+00+
*       -1.333184723E+03               0
GRID*                629               01.7452603097E+026.7678470524E+00+
*       -1.343879979E+03               0
GRID*                630               01.7481476590E+026.7804395322E+00+
*       -1.354575235E+03               0
GRID*                631               01.7510350083E+026.7930320121E+00+
*       -1.365270491E+03               0
GRID*                632               01.7539223576E+026.8056244920E+00+
*       -1.375965747E+03               0
GRID*                633               01.7568097069E+026.8182169718E+00+
*       -1.386661004E+03               0
GRID*                634               01.7596970562E+026.8308094517E+00+
*       -1.397356260E+03               0
GRID*                635               01.7625844055E+026.8434019315E+00+
*       -1.408051516E+03               0
GRID*                636               01.7654717548E+026.8559944114E+00+
*       -1.418746772E+03               0
GRID*                637               01.7683591041E+026.8685868913E+00+
*       -1.429442028E+03               0
GRID*                638               01.7712464534E+026.8811793711E+00+
*       -1.440137284E+03               0
GRID*                639               01.7741338026E+026.8937718510E+00+
*       -1.450832540E+03               0
GRID*                640               01.7770211519E+026.9063643308E+00+
*       -1.461527796E+03               0
GRID*                641               01.7799085012E+026.9189568107E+00+
*       -1.472223052E+03               0
GRID*                642               01.7827958505E+026.9315492906E+00+
*       -1.482918308E+03               0
GRID*                643               01.7856831998E+026.9441417704E+00+
*       -1.493613564E+03               0
GRID*                644               01.7885705491E+026.9567342503E+00+
*       -1.504308820E+03               0
GRID*                645               01.7914578984E+026.9693267302E+00+
*       -1.515004077E+03               0
GRID*                646               01.7943452477E+026.9819192100E+00+
*       -1.525699333E+03               0
GRID*                647               01.7972325970E+026.9945116899E+00+
*       -1.536394589E+03               0
GRID*                648               01.8001199463E+027.0071041697E+00+
*       -1.547089845E+03               0
GRID*                649               01.8030072956E+027.0196966496E+00+
*       -1.557785101E+03               0
GRID*                650               01.8058946449E+027.0322891295E+00+
*       -1.568480357E+03               0
GRID*                651               01.8087819941E+027.0448816093E+00+
*       -1.579175613E+03               0
GRID*                652               01.8116693434E+027.0574740892E+00+
*       -1.589870869E+03               0
GRID*                653               01.8145566927E+027.0700665690E+00+
*       -1.600566125E+03               0
GRID*                654               01.8174440420E+027.0826590489E+00+
*       -1.611261381E+03               0
GRID*                655               01.8203313913E+027.0952515288E+00+
*       -1.621956637E+03               0
GRID*                656               01.8232187406E+027.1078440086E+00+
*       -1.632651893E+03               0
GRID*                657               01.8261060899E+027.1204364885E+00+
*       -1.643347150E+03               0
GRID*                658               01.8289934392E+027.1330289683E+00+
*       -1.654042406E+03               0
GRID*                659               01.8318807885E+027.1456214482E+00+
*       -1.664737662E+03               0
GRID*                660               01.8347681378E+027.1582139281E+00+
*       -1.675432918E+03               0
GRID*                  1               02.0952683160E+022.3355154193E+00+
*       -1.675372351E+03               0
GRID*                  2               02.0917271786E+022.3329776055E+00+
*       -1.664621455E+03               0
GRID*                  3               02.0881890863E+022.3300405380E+00+
*       -1.653872233E+03               0
GRID*                  4               02.0846521385E+022.3267745067E+00+
*       -1.643123619E+03               0
GRID*                  5               02.0811155544E+022.3232355367E+00+
*       -1.632375234E+03               0
GRID*                  6               02.0775790282E+022.3194706121E+00+
*       -1.621626937E+03               0
GRID*                  7               02.0740424524E+022.3155203927E+00+
*       -1.610878675E+03               0
GRID*                  8               02.0705057993E+022.3114206881E+00+
*       -1.600130428E+03               0
GRID*                  9               02.0669690727E+022.3072033285E+00+
*       -1.589382187E+03               0
GRID*                 10               02.0634322871E+022.3028967385E+00+
*       -1.578633950E+03               0
GRID*                 11               02.0598954603E+022.2985263587E+00+
*       -1.567885715E+03               0
GRID*                 12               02.0563586099E+022.2941149808E+00+
*       -1.557137481E+03               0
GRID*                 13               02.0528217522E+022.2896830274E+00+
*       -1.546389248E+03               0
GRID*                 14               02.0492849022E+022.2852487937E+00+
*       -1.535641016E+03               0
GRID*                 15               02.0457480735E+022.2808286578E+00+
*       -1.524892786E+03               0
GRID*                 16               02.0422112782E+022.2764372668E+00+
*       -1.514144556E+03               0
GRID*                 17               02.0386745269E+022.2720877016E+00+
*       -1.503396327E+03               0
GRID*                 18               02.0351378295E+022.2677916243E+00+
*       -1.492648099E+03               0
GRID*                 19               02.0316011943E+022.2635594085E+00+
*       -1.481899872E+03               0
GRID*                 20               02.0280646290E+022.2594002576E+00+
*       -1.471151645E+03               0
GRID*                 21               02.0245281403E+022.2553223100E+00+
*       -1.460403420E+03               0
GRID*                 22               02.0209917340E+022.2513327342E+00+
*       -1.449655194E+03               0
GRID*                 23               02.0174554152E+022.2474378149E+00+
*       -1.438906970E+03               0
GRID*                 24               02.0139191884E+022.2436430301E+00+
*       -1.428158746E+03               0
GRID*                 25               02.0103830574E+022.2399531225E+00+
*       -1.417410523E+03               0
GRID*                 26               02.0068470255E+022.2363721628E+00+
*       -1.406662300E+03               0
GRID*                 27               02.0033110955E+022.2329036087E+00+
*       -1.395914078E+03               0
GRID*                 28               01.9997752696E+022.2295503580E+00+
*       -1.385165856E+03               0
GRID*                 29               01.9962395496E+022.2263147982E+00+
*       -1.374417635E+03               0
GRID*                 30               01.9927039371E+022.2231988509E+00+
*       -1.363669415E+03               0
GRID*                 31               01.9891684332E+022.2202040140E+00+
*       -1.352921194E+03               0
GRID*                 32               01.9856330387E+022.2173313998E+00+
*       -1.342172975E+03               0
GRID*                 33               01.9820977539E+022.2145817710E+00+
*       -1.331424756E+03               0
GRID*                 34               01.9785625793E+022.2119555734E+00+
*       -1.320676537E+03               0
GRID*                 35               01.9750275148E+022.2094529676E+00+
*       -1.309928319E+03               0
GRID*                 36               01.9714903394E+022.2044774860E+00+
*       -1.299180109E+03               0
GRID*                 37               01.9679471171E+022.1891217023E+00+
*       -1.288431922E+03               0
GRID*                 38               01.9644023673E+022.1701789187E+00+
*       -1.277683741E+03               0
GRID*                 39               01.9608592179E+022.1532344288E+00+
*       -1.266935555E+03               0
GRID*                 40               01.9573196404E+022.1418396343E+00+
*       -1.256187356E+03               0
GRID*                 41               01.9537847768E+022.1381004127E+00+
*       -1.245439142E+03               0
GRID*                 42               01.9502550650E+022.1429076103E+00+
*       -1.234690909E+03               0
GRID*                 43               01.9467302396E+022.1559465535E+00+
*       -1.223942660E+03               0
GRID*                 44               01.9432092302E+022.1755295060E+00+
*       -1.213194398E+03               0
GRID*                 45               01.9396899499E+022.1982397440E+00+
*       -1.202446131E+03               0
GRID*                 46               01.9361689409E+022.2183258419E+00+
*       -1.191697870E+03               0
GRID*                 47               01.9326407983E+022.2267160622E+00+
*       -1.180949637E+03               0
GRID*                 48               01.9291047999E+022.2249236131E+00+
*       -1.170201433E+03               0
GRID*                 49               01.9255687572E+022.2228851994E+00+
*       -1.159453230E+03               0
GRID*                 50               01.9220326941E+022.2206426198E+00+
*       -1.148705028E+03               0
GRID*                 51               01.9184966263E+022.2182309608E+00+
*       -1.137956827E+03               0
GRID*                 52               01.9149605669E+022.2156797558E+00+
*       -1.127208627E+03               0
GRID*                 53               01.9114245264E+022.2130138856E+00+
*       -1.116460427E+03               0
GRID*                 54               01.9078885132E+022.2102543097E+00+
*       -1.105712228E+03               0
GRID*                 55               01.9043525341E+022.2074186636E+00+
*       -1.094964030E+03               0
GRID*                 56               01.9008165945E+022.2045217457E+00+
*       -1.084215832E+03               0
GRID*                 57               01.8972806985E+022.2015759144E+00+
*       -1.073467635E+03               0
GRID*                 58               01.8937448492E+022.1985914107E+00+
*       -1.062719439E+03               0
GRID*                 59               01.8902090488E+022.1955766176E+00+
*       -1.051971243E+03               0
GRID*                 60               01.8866732987E+022.1925382658E+00+
*       -1.041223047E+03               0
GRID*                 61               01.8831375995E+022.1894815910E+00+
*       -1.030474852E+03               0
GRID*                 62               01.8796019512E+022.1864104488E+00+
*       -1.019726658E+03               0
GRID*                 63               01.8760663532E+022.1833273878E+00+
*       -1.008978464E+03               0
GRID*                 64               01.8725308040E+022.1802336826E+00+
*       -9.982302711E+02               0
GRID*                 65               01.8689953016E+022.1771293249E+00+
*       -9.874820784E+02               0
GRID*                 66               01.8654598431E+022.1740129677E+00+
*       -9.767338862E+02               0
GRID*                 67               01.8619244249E+022.1708818166E+00+
*       -9.659856945E+02               0
GRID*                 68               01.8583890423E+022.1677314563E+00+
*       -9.552375034E+02               0
GRID*                 69               01.8548536893E+022.1645555958E+00+
*       -9.444893128E+02               0
GRID*                 70               01.8513183585E+022.1613457067E+00+
*       -9.337411228E+02               0
GRID*                 71               01.8477830408E+022.1580905195E+00+
*       -9.229929334E+02               0
GRID*                 72               01.8442477245E+022.1547753216E+00+
*       -9.122447447E+02               0
GRID*                 73               01.8407123949E+022.1513809762E+00+
*       -9.014965566E+02               0
GRID*                 74               01.8371770331E+022.1478825353E+00+
*       -8.907483693E+02               0
GRID*                 75               01.8336416147E+022.1442472490E+00+
*       -8.800001828E+02               0
GRID*                 76               01.8301067401E+022.1409508118E+00+
*       -8.692519949E+02               0
GRID*                 77               01.8265812220E+022.1460095999E+00+
*       -8.585037761E+02               0
GRID*                 78               01.8230656891E+022.1601849233E+00+
*       -8.477555244E+02               0
GRID*                 79               01.8195575723E+022.1811419842E+00+
*       -8.370072487E+02               0
GRID*                 80               01.8160546046E+022.2068221881E+00+
*       -8.262589564E+02               0
GRID*                 81               01.8125547796E+022.2354050695E+00+
*       -8.155106542E+02               0
GRID*                 82               01.8090563196E+022.2652784204E+00+
*       -8.047623480E+02               0
GRID*                 83               01.8055576481E+022.2950129761E+00+
*       -7.940140432E+02               0
GRID*                 84               01.8020573647E+022.3233394183E+00+
*       -7.832657443E+02               0
GRID*                 85               01.7985542206E+022.3491260688E+00+
*       -7.725174554E+02               0
GRID*                 86               01.7950470930E+022.3713558153E+00+
*       -7.617691805E+02               0
GRID*                 87               01.7915349572E+022.3891006373E+00+
*       -7.510209227E+02               0
GRID*                 88               01.7880168537E+022.4014915503E+00+
*       -7.402726853E+02               0
GRID*                 89               01.7844918457E+022.4076806835E+00+
*       -7.295244715E+02               0
GRID*                 90               01.7809589633E+022.4067901583E+00+
*       -7.187762844E+02               0
GRID*                 91               01.7774171218E+022.3978385990E+00+
*       -7.080281277E+02               0
GRID*                 92               01.7738649978E+022.3796286801E+00+
*       -6.972800056E+02               0
GRID*                 93               01.7703008263E+022.3505640008E+00+
*       -6.865319241E+02               0
GRID*                 94               01.7667220494E+022.3083308582E+00+
*       -6.757838916E+02               0
GRID*                 95               01.7631246590E+022.2493040321E+00+
*       -6.650359214E+02               0
GRID*                 96               01.7595018618E+022.1673392547E+00+
*       -6.542880359E+02               0
GRID*                 97               01.7558532399E+022.0621056534E+00+
*       -6.435402365E+02               0
GRID*                 98               01.7522599343E+022.0070283399E+00+
*       -6.327922547E+02               0
GRID*                 99               01.7487168548E+021.9974318408E+00+
*       -6.220441071E+02               0
GRID*                100               01.7452011760E+022.0126610176E+00+
*       -6.112958694E+02               0
GRID*                101               01.7416959505E+022.0373797546E+00+
*       -6.005475976E+02               0
GRID*                102               01.7381887012E+022.0602972759E+00+
*       -5.897993332E+02               0
GRID*                103               01.7346703884E+022.0732335248E+00+
*       -5.790511060E+02               0
GRID*                104               01.7311358213E+022.0714597658E+00+
*       -5.683029332E+02               0
GRID*                105               01.7275966073E+022.0654531452E+00+
*       -5.575547763E+02               0
GRID*                106               01.7240569860E+022.0591106057E+00+
*       -5.468066213E+02               0
GRID*                107               01.7205169934E+022.0524592501E+00+
*       -5.360584680E+02               0
GRID*                108               01.7169766607E+022.0455223734E+00+
*       -5.253103164E+02               0
GRID*                109               01.7134360149E+022.0383203375E+00+
*       -5.145621664E+02               0
GRID*                110               01.7098950799E+022.0308712465E+00+
*       -5.038140178E+02               0
GRID*                111               01.7063538775E+022.0231914721E+00+
*       -4.930658706E+02               0
GRID*                112               01.7028124276E+022.0152960642E+00+
*       -4.823177246E+02               0
GRID*                113               01.6992707488E+022.0071990743E+00+
*       -4.715695798E+02               0
GRID*                114               01.6957288585E+021.9989138107E+00+
*       -4.608214362E+02               0
GRID*                115               01.6921867738E+021.9904530424E+00+
*       -4.500732936E+02               0
GRID*                116               01.6886445108E+021.9818291617E+00+
*       -4.393251520E+02               0
GRID*                117               01.6851020856E+021.9730543164E+00+
*       -4.285770113E+02               0
GRID*                118               01.6815595141E+021.9641405181E+00+
*       -4.178288715E+02               0
GRID*                119               01.6780168119E+021.9550997322E+00+
*       -4.070807324E+02               0
GRID*                120               01.6744739949E+021.9459439556E+00+
*       -3.963325941E+02               0
GRID*                121               01.6709310791E+021.9366852855E+00+
*       -3.855844564E+02               0
GRID*                122               01.6673880805E+021.9273359836E+00+
*       -3.748363193E+02               0
GRID*                123               01.6638450157E+021.9179085404E+00+
*       -3.640881827E+02               0
GRID*                124               01.6603019015E+021.9084157414E+00+
*       -3.533400465E+02               0
GRID*                125               01.6567587553E+021.8988707433E+00+
*       -3.425919107E+02               0
GRID*                126               01.6532155950E+021.8892871630E+00+
*       -3.318437753E+02               0
GRID*                127               01.6496724394E+021.8796791886E+00+
*       -3.210956400E+02               0
GRID*                128               01.6461293083E+021.8700617228E+00+
*       -3.103475049E+02               0
GRID*                129               01.6425862225E+021.8604505723E+00+
*       -2.995993698E+02               0
GRID*                130               01.6390432046E+021.8508627065E+00+
*       -2.888512347E+02               0
GRID*                131               01.6355002790E+021.8413166172E+00+
*       -2.781030994E+02               0
GRID*                132               01.6319579189E+021.8321092872E+00+
*       -2.673549623E+02               0
GRID*                133               01.6284162946E+021.8233384448E+00+
*       -2.566068226E+02               0
GRID*                134               01.6248746278E+021.8144903822E+00+
*       -2.458586833E+02               0
GRID*                135               01.6213325187E+021.8053071184E+00+
*       -2.351105458E+02               0
GRID*                136               01.6177897967E+021.7956852355E+00+
*       -2.243624109E+02               0
GRID*                137               01.6142464274E+021.7856127796E+00+
*       -2.136142785E+02               0
GRID*                138               01.6107024621E+021.7751349450E+00+
*       -2.028661487E+02               0
GRID*                139               01.6071580103E+021.7643355892E+00+
*       -1.921180208E+02               0
GRID*                140               01.6036132267E+021.7533290034E+00+
*       -1.813698944E+02               0
GRID*                141               01.6000683120E+021.7422609377E+00+
*       -1.706217686E+02               0
GRID*                142               01.5965235325E+021.7313234579E+00+
*       -1.598736424E+02               0
GRID*                143               01.5929792849E+021.7208024033E+00+
*       -1.491255144E+02               0
GRID*                144               01.5894363377E+021.7112277730E+00+
*       -1.383773815E+02               0
GRID*                145               01.5858948824E+021.7023669668E+00+
*       -1.276292431E+02               0
GRID*                146               01.5823535484E+021.6935869642E+00+
*       -1.168811044E+02               0
GRID*                147               01.5788123431E+021.6848935341E+00+
*       -1.061329653E+02               0
GRID*                148               01.5752712738E+021.6762926609E+00+
*       -9.538482584E+01               0
GRID*                149               01.5717303485E+021.6677909321E+00+
*       -8.463668589E+01               0
GRID*                150               01.5681895770E+021.6593966617E+00+
*       -7.388854544E+01               0
GRID*                151               01.5646489750E+021.6511240900E+00+
*       -6.314040444E+01               0
GRID*                152               01.5611085897E+021.6430186319E+00+
*       -5.239226269E+01               0
GRID*                153               01.5575673848E+021.6350084742E+00+
*       -4.164412395E+01               0
GRID*                154               01.5540258714E+021.6272416982E+00+
*       -3.089598635E+01               0
GRID*                155               01.5504852384E+021.6201696273E+00+
*       -2.014784544E+01               0
GRID*                156               01.5469453837E+021.6137112446E+00+
*       -9.399701607E+00               0
GRID*                157               01.5434061826E+021.6077631478E+00+
*       1.3484446805E+00               0
GRID*                158               01.5398675081E+021.6022196864E+00+
*       1.2096592934E+01               0
GRID*                159               01.5363295281E+021.5967951118E+00+
*       2.2844743603E+01               0
GRID*                160               01.5327911540E+021.5907649089E+00+
*       3.3592892809E+01               0
GRID*                161               01.5292521755E+021.5839306905E+00+
*       4.4340982218E+01               0
GRID*                162               01.5257102267E+021.5764022236E+00+
*       5.5089488156E+01               0
GRID*                163               01.5221475456E+021.5689299487E+00+
*       6.5841924175E+01               0
GRID*                164               01.5185036265E+021.5637011975E+00+
*       7.6610751135E+01               0
GRID*                165               01.9638884504E+024.1023285069E+00+
*       -1.675405645E+03               0
GRID*                166               01.9606797901E+024.0997476475E+00+
*       -1.664683075E+03               0
GRID*                167               01.9574734209E+024.0966343797E+00+
*       -1.653960842E+03               0
GRID*                168               01.9542676073E+024.0930622937E+00+
*       -1.643238860E+03               0
GRID*                169               01.9510616281E+024.0890810918E+00+
*       -1.632517017E+03               0
GRID*                170               01.9478552061E+024.0847286464E+00+
*       -1.621795240E+03               0
GRID*                171               01.9446482540E+024.0800363480E+00+
*       -1.611073495E+03               0
GRID*                172               01.9414407627E+024.0750315505E+00+
*       -1.600351765E+03               0
GRID*                173               01.9382327534E+024.0697387452E+00+
*       -1.589630042E+03               0
GRID*                174               01.9350242583E+024.0641801733E+00+
*       -1.578908325E+03               0
GRID*                175               01.9318153119E+024.0583761841E+00+
*       -1.568186610E+03               0
GRID*                176               01.9286059481E+024.0523454754E+00+
*       -1.557464898E+03               0
GRID*                177               01.9253961987E+024.0461052733E+00+
*       -1.546743189E+03               0
GRID*                178               01.9221860938E+024.0396714792E+00+
*       -1.536021481E+03               0
GRID*                179               01.9189756611E+024.0330587945E+00+
*       -1.525299776E+03               0
GRID*                180               01.9157649263E+024.0262808295E+00+
*       -1.514578073E+03               0
GRID*                181               01.9125539134E+024.0193502002E+00+
*       -1.503856371E+03               0
GRID*                182               01.9093426446E+024.0122786145E+00+
*       -1.493134671E+03               0
GRID*                183               01.9061311405E+024.0050769486E+00+
*       -1.482412973E+03               0
GRID*                184               01.9029194204E+023.9977553170E+00+
*       -1.471691276E+03               0
GRID*                185               01.8997075022E+023.9903231341E+00+
*       -1.460969581E+03               0
GRID*                186               01.8964954024E+023.9827891707E+00+
*       -1.450247888E+03               0
GRID*                187               01.8932831368E+023.9751616046E+00+
*       -1.439526195E+03               0
GRID*                188               01.8900707198E+023.9674480667E+00+
*       -1.428804504E+03               0
GRID*                189               01.8868581649E+023.9596556825E+00+
*       -1.418082815E+03               0
GRID*                190               01.8836454849E+023.9517911099E+00+
*       -1.407361126E+03               0
GRID*                191               01.8804326917E+023.9438605741E+00+
*       -1.396639439E+03               0
GRID*                192               01.8772197964E+023.9358698984E+00+
*       -1.385917753E+03               0
GRID*                193               01.8740068094E+023.9278245332E+00+
*       -1.375196068E+03               0
GRID*                194               01.8707937404E+023.9197295821E+00+
*       -1.364474384E+03               0
GRID*                195               01.8675805987E+023.9115898260E+00+
*       -1.353752701E+03               0
GRID*                196               01.8643673927E+023.9034097449E+00+
*       -1.343031019E+03               0
GRID*                197               01.8611541306E+023.8951935383E+00+
*       -1.332309338E+03               0
GRID*                198               01.8579408199E+023.8869451435E+00+
*       -1.321587658E+03               0
GRID*                199               01.8547274678E+023.8786682529E+00+
*       -1.310865979E+03               0
GRID*                200               01.8515140808E+023.8703663299E+00+
*       -1.300144300E+03               0
GRID*                201               01.8483006653E+023.8620426230E+00+
*       -1.289422623E+03               0
GRID*                202               01.8450872271E+023.8537001807E+00+
*       -1.278700946E+03               0
GRID*                203               01.8418737715E+023.8453418651E+00+
*       -1.267979270E+03               0
GRID*                204               01.8386603036E+023.8369703649E+00+
*       -1.257257595E+03               0
GRID*                205               01.8354468274E+023.8285882123E+00+
*       -1.246535921E+03               0
GRID*                206               01.8322333458E+023.8201978100E+00+
*       -1.235814247E+03               0
GRID*                207               01.8290198636E+023.8118013529E+00+
*       -1.225092574E+03               0
GRID*                208               01.8258063866E+023.8034008746E+00+
*       -1.214370902E+03               0
GRID*                209               01.8225929189E+023.7949983040E+00+
*       -1.203649230E+03               0
GRID*                210               01.8193794643E+023.7865954541E+00+
*       -1.192927559E+03               0
GRID*                211               01.8161660263E+023.7781940244E+00+
*       -1.182205889E+03               0
GRID*                212               01.8129526079E+023.7697956055E+00+
*       -1.171484219E+03               0
GRID*                213               01.8097392121E+023.7614016850E+00+
*       -1.160762550E+03               0
GRID*                214               01.8065258418E+023.7530136522E+00+
*       -1.150040881E+03               0
GRID*                215               01.8033124994E+023.7446328040E+00+
*       -1.139319213E+03               0
GRID*                216               01.8000991874E+023.7362603494E+00+
*       -1.128597546E+03               0
GRID*                217               01.7968859080E+023.7278974147E+00+
*       -1.117875879E+03               0
GRID*                218               01.7936726634E+023.7195450474E+00+
*       -1.107154213E+03               0
GRID*                219               01.7904594555E+023.7112042208E+00+
*       -1.096432547E+03               0
GRID*                220               01.7872462861E+023.7028758378E+00+
*       -1.085710881E+03               0
GRID*                221               01.7840331570E+023.6945607343E+00+
*       -1.074989216E+03               0
GRID*                222               01.7808200697E+023.6862596832E+00+
*       -1.064267552E+03               0
GRID*                223               01.7776070258E+023.6779733974E+00+
*       -1.053545888E+03               0
GRID*                224               01.7743940266E+023.6697025332E+00+
*       -1.042824224E+03               0
GRID*                225               01.7711810733E+023.6614476927E+00+
*       -1.032102561E+03               0
GRID*                226               01.7679681671E+023.6532094271E+00+
*       -1.021380899E+03               0
GRID*                227               01.7647553092E+023.6449882395E+00+
*       -1.010659237E+03               0
GRID*                228               01.7615425005E+023.6367845866E+00+
*       -9.999375747E+02               0
GRID*                229               01.7583297419E+023.6285988822E+00+
*       -9.892159133E+02               0
GRID*                230               01.7551170342E+023.6204314984E+00+
*       -9.784942523E+02               0
GRID*                231               01.7519043782E+023.6122827686E+00+
*       -9.677725917E+02               0
GRID*                232               01.7486917746E+023.6041529890E+00+
*       -9.570509315E+02               0
GRID*                233               01.7454792241E+023.5960424210E+00+
*       -9.463292716E+02               0
GRID*                234               01.7422667271E+023.5879512926E+00+
*       -9.356076121E+02               0
GRID*                235               01.7390542842E+023.5798798006E+00+
*       -9.248859529E+02               0
GRID*                236               01.7358418958E+023.5718281121E+00+
*       -9.141642941E+02               0
GRID*                237               01.7326295623E+023.5637963660E+00+
*       -9.034426357E+02               0
GRID*                238               01.7294172841E+023.5557846749E+00+
*       -8.927209776E+02               0
GRID*                239               01.7262050614E+023.5477931264E+00+
*       -8.819993198E+02               0
GRID*                240               01.7229928945E+023.5398217841E+00+
*       -8.712776623E+02               0
GRID*                241               01.7197807837E+023.5318706894E+00+
*       -8.605560051E+02               0
GRID*                242               01.7165687291E+023.5239398624E+00+
*       -8.498343482E+02               0
GRID*                243               01.7133567309E+023.5160293025E+00+
*       -8.391126917E+02               0
GRID*                244               01.7101447893E+023.5081389900E+00+
*       -8.283910354E+02               0
GRID*                245               01.7069329044E+023.5002688924E+00+
*       -8.176693794E+02               0
GRID*                246               01.7037210760E+023.4924189608E+00+
*       -8.069477237E+02               0
GRID*                247               01.7005093041E+023.4845891305E+00+
*       -7.962260683E+02               0
GRID*                248               01.6972975888E+023.4767793221E+00+
*       -7.855044131E+02               0
GRID*                249               01.6940859298E+023.4689894428E+00+
*       -7.747827582E+02               0
GRID*                250               01.6908743273E+023.4612193878E+00+
*       -7.640611035E+02               0
GRID*                251               01.6876627810E+023.4534690410E+00+
*       -7.533394491E+02               0
GRID*                252               01.6844512908E+023.4457382757E+00+
*       -7.426177950E+02               0
GRID*                253               01.6812398567E+023.4380269563E+00+
*       -7.318961411E+02               0
GRID*                254               01.6780284784E+023.4303349383E+00+
*       -7.211744874E+02               0
GRID*                255               01.6748171559E+023.4226620695E+00+
*       -7.104528339E+02               0
GRID*                256               01.6716058889E+023.4150081907E+00+
*       -6.997311807E+02               0
GRID*                257               01.6683946773E+023.4073731366E+00+
*       -6.890095277E+02               0
GRID*                258               01.6651835208E+023.3997567364E+00+
*       -6.782878749E+02               0
GRID*                259               01.6619724193E+023.3921588144E+00+
*       -6.675662223E+02               0
GRID*                260               01.6587613725E+023.3845791910E+00+
*       -6.568445699E+02               0
GRID*                261               01.6555503803E+023.3770176831E+00+
*       -6.461229177E+02               0
GRID*                262               01.6523394424E+023.3694741050E+00+
*       -6.354012657E+02               0
GRID*                263               01.6491285586E+023.3619482688E+00+
*       -6.246796139E+02               0
GRID*                264               01.6459177286E+023.3544399852E+00+
*       -6.139579623E+02               0
GRID*                265               01.6427069522E+023.3469490640E+00+
*       -6.032363108E+02               0
GRID*                266               01.6394962292E+023.3394753149E+00+
*       -5.925146596E+02               0
GRID*                267               01.6362849279E+023.3316707511E+00+
*       -5.817930120E+02               0
GRID*                268               01.6330652326E+023.3206772076E+00+
*       -5.710714045E+02               0
GRID*                269               01.6298357571E+023.3061708137E+00+
*       -5.603498427E+02               0
GRID*                270               01.6265975165E+023.2885163708E+00+
*       -5.496283219E+02               0
GRID*                271               01.6233514686E+023.2680582022E+00+
*       -5.389068376E+02               0
GRID*                272               01.6200985175E+023.2451212225E+00+
*       -5.281853857E+02               0
GRID*                273               01.6168395158E+023.2200119458E+00+
*       -5.174639622E+02               0
GRID*                274               01.6135752679E+023.1930194378E+00+
*       -5.067425633E+02               0
GRID*                275               01.6103065320E+023.1644162142E+00+
*       -4.960211856E+02               0
GRID*                276               01.6070340224E+023.1344590909E+00+
*       -4.852998258E+02               0
GRID*                277               01.6037584124E+023.1033899872E+00+
*       -4.745784806E+02               0
GRID*                278               01.6004803355E+023.0714366865E+00+
*       -4.638571473E+02               0
GRID*                279               01.5972003883E+023.0388135568E+00+
*       -4.531358229E+02               0
GRID*                280               01.5939191316E+023.0057222335E+00+
*       -4.424145050E+02               0
GRID*                281               01.5906370928E+022.9723522674E+00+
*       -4.316931910E+02               0
GRID*                282               01.5873547674E+022.9388817390E+00+
*       -4.209718787E+02               0
GRID*                283               01.5840726205E+022.9054778437E+00+
*       -4.102505659E+02               0
GRID*                284               01.5807910885E+022.8722974463E+00+
*       -3.995292506E+02               0
GRID*                285               01.5775105804E+022.8394876108E+00+
*       -3.888079309E+02               0
GRID*                286               01.5742314797E+022.8071861031E+00+
*       -3.780866050E+02               0
GRID*                287               01.5709541450E+022.7755218722E+00+
*       -3.673652712E+02               0
GRID*                288               01.5676789118E+022.7446155080E+00+
*       -3.566439280E+02               0
GRID*                289               01.5644060935E+022.7145796795E+00+
*       -3.459225739E+02               0
GRID*                290               01.5611359828E+022.6855195542E+00+
*       -3.352012076E+02               0
GRID*                291               01.5578688523E+022.6575331995E+00+
*       -3.244798278E+02               0
GRID*                292               01.5546049562E+022.6307119678E+00+
*       -3.137584333E+02               0
GRID*                293               01.5513445310E+022.6051408665E+00+
*       -3.030370230E+02               0
GRID*                294               01.5480877965E+022.5808989142E+00+
*       -2.923155958E+02               0
GRID*                295               01.5448349568E+022.5580594840E+00+
*       -2.815941510E+02               0
GRID*                296               01.5415862012E+022.5366906346E+00+
*       -2.708726874E+02               0
GRID*                297               01.5383417051E+022.5168554319E+00+
*       -2.601512044E+02               0
GRID*                298               01.5351016309E+022.4986122600E+00+
*       -2.494297012E+02               0
GRID*                299               01.5318661289E+022.4820151237E+00+
*       -2.387081771E+02               0
GRID*                300               01.5286353378E+022.4671139445E+00+
*       -2.279866314E+02               0
GRID*                301               01.5254093860E+022.4539548491E+00+
*       -2.172650635E+02               0
GRID*                302               01.5221883919E+022.4425804532E+00+
*       -2.065434729E+02               0
GRID*                303               01.5189724652E+022.4330301410E+00+
*       -1.958218591E+02               0
GRID*                304               01.5157617070E+022.4253403416E+00+
*       -1.851002216E+02               0
GRID*                305               01.5125562113E+022.4195448035E+00+
*       -1.743785599E+02               0
GRID*                306               01.5093560651E+022.4156748684E+00+
*       -1.636568736E+02               0
GRID*                307               01.5061613498E+022.4137597464E+00+
*       -1.529351624E+02               0
GRID*                308               01.5029721413E+022.4138267920E+00+
*       -1.422134259E+02               0
GRID*                309               01.4997885113E+022.4159017859E+00+
*       -1.314916638E+02               0
GRID*                310               01.4966105279E+022.4200092201E+00+
*       -1.207698757E+02               0
GRID*                311               01.4934382565E+022.4261725917E+00+
*       -1.100480614E+02               0
GRID*                312               01.4902717603E+022.4344147062E+00+
*       -9.932622050E+01               0
GRID*                313               01.4871111018E+022.4447579915E+00+
*       -8.860435275E+01               0
GRID*                314               01.4839563432E+022.4572248270E+00+
*       -7.788245785E+01               0
GRID*                315               01.4808075474E+022.4718378901E+00+
*       -6.716053552E+01               0
GRID*                316               01.4776647793E+022.4886205232E+00+
*       -5.643858543E+01               0
GRID*                317               01.4745281068E+022.5075971245E+00+
*       -4.571660729E+01               0
GRID*                318               01.4713976017E+022.5287935691E+00+
*       -3.499460075E+01               0
GRID*                319               01.4682733414E+022.5522376625E+00+
*       -2.427256544E+01               0
GRID*                320               01.4651554098E+022.5779596352E+00+
*       -1.355050099E+01               0
GRID*                321               01.4620438993E+022.6059926832E+00+
*       -2.828406947E+00               0
GRID*                322               01.4589389120E+022.6363735636E+00+
*       7.8937171504E+00               0
GRID*                323               01.4558405621E+022.6691432518E+00+
*       1.8615871790E+01               0
GRID*                324               01.4527489511E+022.7043480158E+00+
*       2.9338062995E+01               0
GRID*                325               01.4496650009E+022.7420285276E+00+
*       4.0060132884E+01               0
GRID*                326               01.4465879909E+022.7822533801E+00+
*       5.0782217155E+01               0
GRID*                327               01.4435102654E+022.8252336878E+00+
*       6.1505612030E+01               0
GRID*                328               01.4404085635E+022.8716015693E+00+
*       7.2234098458E+01               0
GRID*               4500               02.1178860823E+02-2.123648147E+00+
*       -1.686128174E+03               0
GRID*               4501               02.0051193609E+02-2.287787585E+00+
*       -1.686128174E+03               0
GRID*               4502               01.8923519076E+02-2.443068369E+00+
*       -1.686128174E+03               0
GRID*               4004               0-3.978691101E+011.2973253250E+01+
*       -1.686128174E+03               0
GRID*               3649               0-4.927266788E+011.0958400793E+01+
*       -1.686128174E+03               0
GRID*               3650               0-5.825744010E+017.3820300358E+00+
*       -1.686128174E+03               0
GRID*               4005               01.5088193893E+019.2731533051E+00+
*       6.2111730576E+00               0
GRID*               3653               0-3.945310756E+011.2942834277E+01+
*       -1.675856479E+03               0
GRID*               3654               0-3.911930411E+011.2912415304E+01+
*       -1.665584784E+03               0
GRID*               3655               0-3.878550066E+011.2881996331E+01+
*       -1.655313089E+03               0
GRID*               3656               0-3.845169721E+011.2851577358E+01+
*       -1.645041395E+03               0
GRID*               3657               0-3.811789376E+011.2821158385E+01+
*       -1.634769700E+03               0
GRID*               3658               0-3.778409031E+011.2790739412E+01+
*       -1.624498005E+03               0
GRID*               3659               0-3.745028686E+011.2760320439E+01+
*       -1.614226310E+03               0
GRID*               3660               0-3.711648341E+011.2729901466E+01+
*       -1.603954616E+03               0
GRID*               3661               0-3.678267996E+011.2699482493E+01+
*       -1.593682921E+03               0
GRID*               3662               0-3.644887651E+011.2669063520E+01+
*       -1.583411226E+03               0
GRID*               3663               0-3.611507306E+011.2638644547E+01+
*       -1.573139531E+03               0
GRID*               3664               0-3.578126961E+011.2608225574E+01+
*       -1.562867836E+03               0
GRID*               3665               0-3.544746616E+011.2577806601E+01+
*       -1.552596142E+03               0
GRID*               3666               0-3.511366271E+011.2547387628E+01+
*       -1.542324447E+03               0
GRID*               3667               0-3.477985926E+011.2516968655E+01+
*       -1.532052752E+03               0
GRID*               3668               0-3.444605581E+011.2486549682E+01+
*       -1.521781057E+03               0
GRID*               3669               0-3.411225235E+011.2456130709E+01+
*       -1.511509363E+03               0
GRID*               3670               0-3.377844890E+011.2425711736E+01+
*       -1.501237668E+03               0
GRID*               3671               0-3.344464545E+011.2395292763E+01+
*       -1.490965973E+03               0
GRID*               3672               0-3.311084200E+011.2364873790E+01+
*       -1.480694278E+03               0
GRID*               3673               0-3.277703855E+011.2334454817E+01+
*       -1.470422583E+03               0
GRID*               3674               0-3.244323510E+011.2304035844E+01+
*       -1.460150889E+03               0
GRID*               3675               0-3.210943165E+011.2273616871E+01+
*       -1.449879194E+03               0
GRID*               3676               0-3.177562820E+011.2243197898E+01+
*       -1.439607499E+03               0
GRID*               3677               0-3.144192477E+011.2213431156E+01+
*       -1.429335799E+03               0
GRID*               3678               0-3.110881798E+011.2187555401E+01+
*       -1.419064069E+03               0
GRID*               3679               0-3.077571119E+011.2161679647E+01+
*       -1.408792340E+03               0
GRID*               3680               0-3.044260440E+011.2135803892E+01+
*       -1.398520610E+03               0
GRID*               3681               0-3.010949760E+011.2109928137E+01+
*       -1.388248880E+03               0
GRID*               3682               0-2.977901360E+011.2101132255E+01+
*       -1.377977038E+03               0
GRID*               3683               0-2.944885321E+011.2094443720E+01+
*       -1.367705183E+03               0
GRID*               3684               0-2.911860341E+011.2087172965E+01+
*       -1.357433331E+03               0
GRID*               3685               0-2.878721372E+011.2072478104E+01+
*       -1.347161524E+03               0
GRID*               3686               0-2.845582403E+011.2057783242E+01+
*       -1.336889716E+03               0
GRID*               3687               0-2.812443434E+011.2043088380E+01+
*       -1.326617909E+03               0
GRID*               3688               0-2.779304465E+011.2028393518E+01+
*       -1.316346101E+03               0
GRID*               3689               0-2.746165496E+011.2013698656E+01+
*       -1.306074294E+03               0
GRID*               3690               0-2.713026527E+011.1999003794E+01+
*       -1.295802486E+03               0
GRID*               3691               0-2.679887558E+011.1984308932E+01+
*       -1.285530679E+03               0
GRID*               3692               0-2.646748589E+011.1969614070E+01+
*       -1.275258871E+03               0
GRID*               3693               0-2.613609620E+011.1954919208E+01+
*       -1.264987064E+03               0
GRID*               3694               0-2.580470651E+011.1940224347E+01+
*       -1.254715256E+03               0
GRID*               3695               0-2.547331682E+011.1925529485E+01+
*       -1.244443449E+03               0
GRID*               3696               0-2.514184429E+011.1910294914E+01+
*       -1.234171645E+03               0
GRID*               3697               0-2.480975623E+011.1891049903E+01+
*       -1.223899868E+03               0
GRID*               3698               0-2.447766816E+011.1871804892E+01+
*       -1.213628090E+03               0
GRID*               3699               0-2.414558009E+011.1852559881E+01+
*       -1.203356313E+03               0
GRID*               3700               0-2.381349203E+011.1833314870E+01+
*       -1.193084535E+03               0
GRID*               3701               0-2.348140396E+011.1814069859E+01+
*       -1.182812758E+03               0
GRID*               3702               0-2.314931590E+011.1794824848E+01+
*       -1.172540981E+03               0
GRID*               3703               0-2.281722783E+011.1775579837E+01+
*       -1.162269203E+03               0
GRID*               3704               0-2.248513977E+011.1756334826E+01+
*       -1.151997426E+03               0
GRID*               3705               0-2.215305170E+011.1737089815E+01+
*       -1.141725648E+03               0
GRID*               3706               0-2.182096363E+011.1717844804E+01+
*       -1.131453871E+03               0
GRID*               3707               0-2.148887557E+011.1698599793E+01+
*       -1.121182094E+03               0
GRID*               3708               0-2.115678496E+011.1679338204E+01+
*       -1.110910316E+03               0
GRID*               3709               0-2.082438695E+011.1658076361E+01+
*       -1.100638553E+03               0
GRID*               3710               0-2.049198894E+011.1636814519E+01+
*       -1.090366790E+03               0
GRID*               3711               0-2.015959094E+011.1615552676E+01+
*       -1.080095026E+03               0
GRID*               3712               0-1.982719293E+011.1594290833E+01+
*       -1.069823263E+03               0
GRID*               3713               0-1.949479492E+011.1573028990E+01+
*       -1.059551499E+03               0
GRID*               3714               0-1.916239692E+011.1551767148E+01+
*       -1.049279736E+03               0
GRID*               3715               0-1.882999891E+011.1530505305E+01+
*       -1.039007973E+03               0
GRID*               3716               0-1.849760090E+011.1509243462E+01+
*       -1.028736209E+03               0
GRID*               3717               0-1.816520290E+011.1487981620E+01+
*       -1.018464446E+03               0
GRID*               3718               0-1.783280489E+011.1466719777E+01+
*       -1.008192683E+03               0
GRID*               3719               0-1.750040688E+011.1445457934E+01+
*       -9.979209191E+02               0
GRID*               3720               0-1.716800888E+011.1424196092E+01+
*       -9.876491557E+02               0
GRID*               3721               0-1.683561087E+011.1402934249E+01+
*       -9.773773923E+02               0
GRID*               3722               0-1.650321287E+011.1381672406E+01+
*       -9.671056289E+02               0
GRID*               3723               0-1.617081486E+011.1360410564E+01+
*       -9.568338655E+02               0
GRID*               3724               0-1.583841685E+011.1339148721E+01+
*       -9.465621021E+02               0
GRID*               3725               0-1.550601885E+011.1317886878E+01+
*       -9.362903388E+02               0
GRID*               3726               0-1.517362084E+011.1296625036E+01+
*       -9.260185754E+02               0
GRID*               3727               0-1.484122283E+011.1275363193E+01+
*       -9.157468120E+02               0
GRID*               3728               0-1.450882483E+011.1254101350E+01+
*       -9.054750486E+02               0
GRID*               3729               0-1.417642682E+011.1232839508E+01+
*       -8.952032852E+02               0
GRID*               3730               0-1.384402881E+011.1211577665E+01+
*       -8.849315218E+02               0
GRID*               3731               0-1.351163091E+011.1190315759E+01+
*       -8.746597584E+02               0
GRID*               3732               0-1.317923308E+011.1169053806E+01+
*       -8.643879950E+02               0
GRID*               3733               0-1.284683525E+011.1147791853E+01+
*       -8.541162316E+02               0
GRID*               3734               0-1.251443742E+011.1126529901E+01+
*       -8.438444682E+02               0
GRID*               3735               0-1.218203958E+011.1105267948E+01+
*       -8.335727048E+02               0
GRID*               3736               0-1.184964175E+011.1084005996E+01+
*       -8.233009414E+02               0
GRID*               3737               0-1.151715275E+011.1062150475E+01+
*       -8.130291822E+02               0
GRID*               3738               0-1.118454584E+011.1039527208E+01+
*       -8.027574285E+02               0
GRID*               3739               0-1.085193892E+011.1016903941E+01+
*       -7.924856748E+02               0
GRID*               3740               0-1.051933200E+011.0994280674E+01+
*       -7.822139211E+02               0
GRID*               3741               0-1.018672509E+011.0971657407E+01+
*       -7.719421673E+02               0
GRID*               3742               0-9.854118171E+001.0949034140E+01+
*       -7.616704136E+02               0
GRID*               3743               0-9.521511254E+001.0926410873E+01+
*       -7.513986599E+02               0
GRID*               3744               0-9.188904337E+001.0903787606E+01+
*       -7.411269062E+02               0
GRID*               3745               0-8.856297420E+001.0881164340E+01+
*       -7.308551525E+02               0
GRID*               3746               0-8.523690504E+001.0858541073E+01+
*       -7.205833987E+02               0
GRID*               3747               0-8.191083587E+001.0835917806E+01+
*       -7.103116450E+02               0
GRID*               3748               0-7.858476670E+001.0813294539E+01+
*       -7.000398913E+02               0
GRID*               3749               0-7.525869753E+001.0790671272E+01+
*       -6.897681376E+02               0
GRID*               3750               0-7.193262836E+001.0768048005E+01+
*       -6.794963839E+02               0
GRID*               3751               0-6.860655919E+001.0745424738E+01+
*       -6.692246301E+02               0
GRID*               3752               0-6.528049003E+001.0722801471E+01+
*       -6.589528764E+02               0
GRID*               3753               0-6.195442086E+001.0700178205E+01+
*       -6.486811227E+02               0
GRID*               3754               0-5.862835169E+001.0677554938E+01+
*       -6.384093690E+02               0
GRID*               3755               0-5.530228252E+001.0654931671E+01+
*       -6.281376152E+02               0
GRID*               3756               0-5.197621335E+001.0632308404E+01+
*       -6.178658615E+02               0
GRID*               3757               0-4.865014418E+001.0609685137E+01+
*       -6.075941078E+02               0
GRID*               3758               0-4.532407502E+001.0587061870E+01+
*       -5.973223541E+02               0
GRID*               3759               0-4.199727988E+001.0563962698E+01+
*       -5.870506038E+02               0
GRID*               3760               0-3.866807562E+001.0539296303E+01+
*       -5.767788649E+02               0
GRID*               3761               0-3.533835385E+001.0514293604E+01+
*       -5.665071286E+02               0
GRID*               3762               0-3.200863208E+001.0489290906E+01+
*       -5.562353922E+02               0
GRID*               3763               0-2.867891031E+001.0464288208E+01+
*       -5.459636558E+02               0
GRID*               3764               0-2.534918854E+001.0439285509E+01+
*       -5.356919195E+02               0
GRID*               3765               0-2.201946677E+001.0414282811E+01+
*       -5.254201831E+02               0
GRID*               3766               0-1.868974500E+001.0389280112E+01+
*       -5.151484467E+02               0
GRID*               3767               0-1.536002323E+001.0364277414E+01+
*       -5.048767103E+02               0
GRID*               3768               0-1.203030146E+001.0339274716E+01+
*       -4.946049740E+02               0
GRID*               3769               0-8.700579689E-011.0314272017E+01+
*       -4.843332376E+02               0
GRID*               3770               0-5.370857919E-011.0289269319E+01+
*       -4.740615012E+02               0
GRID*               3771               0-2.041136149E-011.0264266621E+01+
*       -4.637897649E+02               0
GRID*               3772               01.2885856207E-011.0239263922E+01+
*       -4.535180285E+02               0
GRID*               3773               04.6183073907E-011.0214261224E+01+
*       -4.432462921E+02               0
GRID*               3774               07.9480291606E-011.0189258526E+01+
*       -4.329745557E+02               0
GRID*               3775               01.1277750930E+001.0164255827E+01+
*       -4.227028194E+02               0
GRID*               3776               01.4607472700E+001.0139253129E+01+
*       -4.124310830E+02               0
GRID*               3777               01.7937194470E+001.0114250431E+01+
*       -4.021593466E+02               0
GRID*               3778               02.1266916240E+001.0089247732E+01+
*       -3.918876103E+02               0
GRID*               3779               02.4596638010E+001.0064245034E+01+
*       -3.816158739E+02               0
GRID*               3780               02.7926359780E+001.0039242336E+01+
*       -3.713441375E+02               0
GRID*               3781               03.1256081550E+001.0014239637E+01+
*       -3.610724011E+02               0
GRID*               3782               03.4585803320E+009.9892369390E+00+
*       -3.508006648E+02               0
GRID*               3783               03.7915525090E+009.9642342406E+00+
*       -3.405289284E+02               0
GRID*               3784               04.1245246860E+009.9392315423E+00+
*       -3.302571920E+02               0
GRID*               3785               04.4574968630E+009.9142288439E+00+
*       -3.199854557E+02               0
GRID*               3786               04.7904690400E+009.8892261456E+00+
*       -3.097137193E+02               0
GRID*               3787               05.1234412169E+009.8642234472E+00+
*       -2.994419829E+02               0
GRID*               3788               05.4564133939E+009.8392207489E+00+
*       -2.891702465E+02               0
GRID*               3789               05.7893855709E+009.8142180506E+00+
*       -2.788985102E+02               0
GRID*               3790               06.1223577479E+009.7892153522E+00+
*       -2.686267738E+02               0
GRID*               3791               06.4553299249E+009.7642126539E+00+
*       -2.583550374E+02               0
GRID*               3792               06.7883021019E+009.7392099555E+00+
*       -2.480833011E+02               0
GRID*               3793               07.1212742789E+009.7142072572E+00+
*       -2.378115647E+02               0
GRID*               3794               07.4542464559E+009.6892045588E+00+
*       -2.275398283E+02               0
GRID*               3795               07.7872186329E+009.6642018605E+00+
*       -2.172680919E+02               0
GRID*               3796               08.1201908099E+009.6391991621E+00+
*       -2.069963556E+02               0
GRID*               3797               08.4531629869E+009.6141964638E+00+
*       -1.967246192E+02               0
GRID*               3798               08.7861351639E+009.5891937654E+00+
*       -1.864528828E+02               0
GRID*               3799               09.1191073408E+009.5641910671E+00+
*       -1.761811465E+02               0
GRID*               3800               09.4520795178E+009.5391883688E+00+
*       -1.659094101E+02               0
GRID*               3801               09.7850516948E+009.5141856704E+00+
*       -1.556376737E+02               0
GRID*               3802               01.0118023872E+019.4891829721E+00+
*       -1.453659373E+02               0
GRID*               3803               01.0450996049E+019.4641802737E+00+
*       -1.350942010E+02               0
GRID*               3804               01.0783968226E+019.4391775754E+00+
*       -1.248224646E+02               0
GRID*               3805               01.1116940403E+019.4141748770E+00+
*       -1.145507282E+02               0
GRID*               3806               01.1449711476E+019.3904820591E+00+
*       -1.042789831E+02               0
GRID*               3807               01.1780482605E+019.3798158087E+00+
*       -9.400715071E+01               0
GRID*               3808               01.2111253734E+019.3691495584E+00+
*       -8.373531833E+01               0
GRID*               3809               01.2442024863E+019.3584833080E+00+
*       -7.346348596E+01               0
GRID*               3810               01.2772795992E+019.3478170576E+00+
*       -6.319165358E+01               0
GRID*               3811               01.3103567120E+019.3371508073E+00+
*       -5.291982120E+01               0
GRID*               3812               01.3434338249E+019.3264845569E+00+
*       -4.264798883E+01               0
GRID*               3813               01.3765109378E+019.3158183065E+00+
*       -3.237615645E+01               0
GRID*               3814               01.4095880507E+019.3051520562E+00+
*       -2.210432407E+01               0
GRID*               3815               01.4426651636E+019.2944858058E+00+
*       -1.183249170E+01               0
GRID*               3816               01.4757422765E+019.2838195554E+00+
*       -1.560659319E+00               0
GRID*               1020               07.6444426009E+008.0144037171E+00+
*       -5.304497795E+00               0
GRID*               1021               07.0580927204E-015.6413475686E+00+
*       -8.765964611E+00               0
GRID*               1022               07.2414021960E+008.0127532632E+00+
*       -1.539186408E+01               0
GRID*               1023               02.7363428416E-015.6029524708E+00+
*       -1.880500722E+01               0
GRID*               1024               06.8741167370E+008.0236902030E+00+
*       -2.558140837E+01               0
GRID*               1025               0-1.149520902E-015.5926697885E+00+
*       -2.898641979E+01               0
GRID*               1026               06.5207863772E+008.0411999222E+00+
*       -3.581221735E+01               0
GRID*               1027               0-4.916120742E-015.5902415984E+00+
*       -3.920523682E+01               0
GRID*               1028               06.1717463499E+008.0624399137E+00+
*       -4.605658304E+01               0
GRID*               1029               0-8.648148927E-015.5901454479E+00+
*       -4.943382107E+01               0
GRID*               1030               05.8238851101E+008.0854400003E+00+
*       -5.630502202E+01               0
GRID*               1031               0-1.236816434E+005.5909017871E+00+
*       -5.966491503E+01               0
GRID*               1032               05.4769847431E+008.1059854068E+00+
*       -6.655469348E+01               0
GRID*               1033               0-1.608212177E+005.5921212176E+00+
*       -6.989660085E+01               0
GRID*               1034               05.1303208865E+008.1244777819E+00+
*       -7.680480929E+01               0
GRID*               1035               0-1.979151417E+005.5937089345E+00+
*       -8.012836628E+01               0
GRID*               1036               04.7801025255E+008.1481920494E+00+
*       -8.705524682E+01               0
GRID*               1037               0-2.349664184E+005.5956494511E+00+
*       -9.036007094E+01               0
GRID*               1038               04.4276986243E+008.1755373345E+00+
*       -9.730586966E+01               0
GRID*               1039               0-2.719753148E+005.5979460108E+00+
*       -1.005916730E+02               0
GRID*               1040               04.0737481719E+008.2052939987E+00+
*       -1.075566062E+02               0
GRID*               1041               0-3.089422474E+005.6006016781E+00+
*       -1.108231564E+02               0
GRID*               1042               03.7185311319E+008.2367893899E+00+
*       -1.178074196E+02               0
GRID*               1043               0-3.458664036E+005.6036272367E+00+
*       -1.210545120E+02               0
GRID*               1044               03.3624679706E+008.2695532382E+00+
*       -1.280582906E+02               0
GRID*               1045               0-3.827409504E+005.6070700509E+00+
*       -1.312857330E+02               0
GRID*               1046               03.0058224614E+008.3031823207E+00+
*       -1.383092011E+02               0
GRID*               1047               0-4.195622952E+005.6109579419E+00+
*       -1.415168127E+02               0
GRID*               1048               02.6488145305E+008.3373091877E+00+
*       -1.485601344E+02               0
GRID*               1049               0-4.563275846E+005.6153142023E+00+
*       -1.517477440E+02               0
GRID*               1050               02.2916495604E+008.3715858916E+00+
*       -1.588110746E+02               0
GRID*               1051               0-4.930341049E+005.6201611609E+00+
*       -1.619785202E+02               0
GRID*               1052               01.9345252886E+008.4056760846E+00+
*       -1.690620062E+02               0
GRID*               1053               0-5.296792006E+005.6255206219E+00+
*       -1.722091343E+02               0
GRID*               1054               01.5776344435E+008.4392514799E+00+
*       -1.793129141E+02               0
GRID*               1055               0-5.662602672E+005.6314138510E+00+
*       -1.824395797E+02               0
GRID*               1056               01.2211655726E+008.4719906074E+00+
*       -1.895637835E+02               0
GRID*               1057               0-6.027747657E+005.6378614347E+00+
*       -1.926698499E+02               0
GRID*               1058               08.6530295336E-018.5035789190E+00+
*       -1.998146001E+02               0
GRID*               1059               0-6.392202430E+005.6448831026E+00+
*       -2.028999385E+02               0
GRID*               1060               05.1022593747E-018.5337098039E+00+
*       -2.100653501E+02               0
GRID*               1061               0-6.755943537E+005.6524975377E+00+
*       -2.131298396E+02               0
GRID*               1062               01.5610786524E-018.5620863177E+00+
*       -2.203160200E+02               0
GRID*               1063               0-7.118948830E+005.6607221788E+00+
*       -2.233595475E+02               0
GRID*               1064               0-1.968854057E-018.5884235596E+00+
*       -2.305665972E+02               0
GRID*               1065               0-7.481197706E+005.6695730153E+00+
*       -2.335890571E+02               0
GRID*               1066               0-5.485973634E-018.6124517073E+00+
*       -2.408170700E+02               0
GRID*               1067               0-7.842671355E+005.6790643730E+00+
*       -2.438183635E+02               0
GRID*               1068               0-8.988831372E-018.6339197769E+00+
*       -2.510674276E+02               0
GRID*               1069               0-8.203353015E+005.6892086883E+00+
*       -2.540474628E+02               0
GRID*               1070               0-1.247612293E+008.6526002202E+00+
*       -2.613176607E+02               0
GRID*               1071               0-8.563228253E+005.7000162694E+00+
*       -2.642763513E+02               0
GRID*               1072               0-1.594672223E+008.6682945223E+00+
*       -2.715677615E+02               0
GRID*               1073               0-8.922285254E+005.7114950419E+00+
*       -2.745050262E+02               0
GRID*               1074               0-1.939972268E+008.6808400129E+00+
*       -2.818177240E+02               0
GRID*               1075               0-9.280515131E+005.7236502765E+00+
*       -2.847334857E+02               0
GRID*               1076               0-2.283448723E+008.6901181791E+00+
*       -2.920675449E+02               0
GRID*               1077               0-9.637912267E+005.7364842960E+00+
*       -2.949617284E+02               0
GRID*               1078               0-2.625070968E+008.6960648458E+00+
*       -3.023172236E+02               0
GRID*               1079               0-9.994474670E+005.7499961606E+00+
*       -3.051897544E+02               0
GRID*               1080               0-2.964848998E+008.6986827119E+00+
*       -3.125667630E+02               0
GRID*               1081               0-1.035020437E+015.7641813255E+00+
*       -3.154175645E+02               0
GRID*               1082               0-3.302842736E+008.6980568773E+00+
*       -3.228161705E+02               0
GRID*               1083               0-1.070510785E+015.7790312713E+00+
*       -3.256451609E+02               0
GRID*               1084               0-3.639173624E+008.6943742043E+00+
*       -3.330654587E+02               0
GRID*               1085               0-1.105919648E+015.7945331004E+00+
*       -3.358725470E+02               0
GRID*               1086               0-3.974039183E+008.6879476442E+00+
*       -3.433146467E+02               0
GRID*               1087               0-1.141248707E+015.8106690983E+00+
*       -3.460997279E+02               0
GRID*               1088               0-4.307731415E+008.6792470513E+00+
*       -3.535637617E+02               0
GRID*               1089               0-1.176500238E+015.8274162527E+00+
*       -3.563267100E+02               0
GRID*               1090               0-4.640660323E+008.6689385715E+00+
*       -3.638128408E+02               0
GRID*               1091               0-1.211677175E+015.8447457283E+00+
*       -3.665535017E+02               0
GRID*               1092               0-4.973384232E+008.6579354882E+00+
*       -3.740619337E+02               0
GRID*               1093               0-1.246783176E+015.8626222892E+00+
*       -3.767801131E+02               0
GRID*               1094               0-5.306649335E+008.6474645766E+00+
*       -3.843111058E+02               0
GRID*               1095               0-1.281822697E+015.8810036645E+00+
*       -3.870065567E+02               0
GRID*               1096               0-5.641441887E+008.6391537320E+00+
*       -3.945604429E+02               0
GRID*               1097               0-1.316801069E+015.8998398495E+00+
*       -3.972328471E+02               0
GRID*               1098               0-5.979057998E+008.6351492260E+00+
*       -4.048100562E+02               0
GRID*               1099               0-1.351724596E+015.9190723329E+00+
*       -4.074590018E+02               0
GRID*               1100               0-6.320987724E+008.6383197015E+00+
*       -4.150600934E+02               0
GRID*               1101               0-1.386600642E+015.9386332442E+00+
*       -4.176850409E+02               0
GRID*               1102               0-6.663328363E+008.6483035385E+00+
*       -4.253103921E+02               0
GRID*               1103               0-1.421437752E+015.9584444065E+00+
*       -4.279109877E+02               0
GRID*               1104               0-7.005940904E+008.6605387000E+00+
*       -4.355606732E+02               0
GRID*               1105               0-1.456245768E+015.9784162861E+00+
*       -4.381368690E+02               0
GRID*               1106               0-7.348230876E+008.6714365647E+00+
*       -4.458109681E+02               0
GRID*               1107               0-1.491035966E+015.9984468230E+00+
*       -4.483627154E+02               0
GRID*               1108               0-7.685874852E+008.6637298550E+00+
*       -4.560614710E+02               0
GRID*               1109               0-1.525821209E+016.0184201267E+00+
*       -4.585885618E+02               0
GRID*               1110               0-8.009544954E+008.6139059798E+00+
*       -4.663125116E+02               0
GRID*               1111               0-1.560616115E+016.0382050186E+00+
*       -4.688144477E+02               0
GRID*               1112               0-8.328993341E+008.5528878679E+00+
*       -4.765637075E+02               0
GRID*               1113               0-1.595437249E+016.0576533998E+00+
*       -4.790404178E+02               0
GRID*               1114               0-8.650563669E+008.4990747299E+00+
*       -4.868148221E+02               0
GRID*               1115               0-1.630303337E+016.0765984182E+00+
*       -4.892665225E+02               0
GRID*               1116               0-8.977601575E+008.4621006017E+00+
*       -4.970657308E+02               0
GRID*               1117               0-1.665235507E+016.0948524060E+00+
*       -4.994928188E+02               0
GRID*               1118               0-9.311672241E+008.4463733172E+00+
*       -5.073163756E+02               0
GRID*               1119               0-1.700257559E+016.1122045533E+00+
*       -5.097193704E+02               0
GRID*               1120               0-9.652844773E+008.4518785579E+00+
*       -5.175667549E+02               0
GRID*               1121               0-1.735396278E+016.1284182765E+00+
*       -5.199462494E+02               0
GRID*               1122               0-9.999272749E+008.4729013017E+00+
*       -5.278169388E+02               0
GRID*               1123               0-1.770681777E+016.1432282351E+00+
*       -5.301735365E+02               0
GRID*               1124               0-1.034566496E+018.4933792617E+00+
*       -5.380671263E+02               0
GRID*               1125               0-1.806147902E+016.1563369416E+00+
*       -5.404013221E+02               0
GRID*               1126               0-1.068699026E+018.4973068510E+00+
*       -5.483174729E+02               0
GRID*               1127               0-1.841832674E+016.1674109297E+00+
*       -5.506297081E+02               0
GRID*               1128               0-1.103452932E+018.5217145366E+00+
*       -5.585675832E+02               0
GRID*               1129               0-1.878203197E+016.1784380813E+00+
*       -5.608587008E+02               0
GRID*               1130               0-1.138491899E+018.5564230717E+00+
*       -5.688175816E+02               0
GRID*               1131               0-1.915688287E+016.1948048552E+00+
*       -5.710880910E+02               0
GRID*               1132               0-1.173664004E+018.5958862557E+00+
*       -5.790675277E+02               0
GRID*               1133               0-1.953827083E+016.2145834469E+00+
*       -5.813177003E+02               0
GRID*               1134               0-1.208871022E+018.6365451066E+00+
*       -5.893174603E+02               0
GRID*               1135               0-1.992278855E+016.2360486440E+00+
*       -5.915473954E+02               0
GRID*               1136               0-1.244046562E+018.6760058680E+00+
*       -5.995674055E+02               0
GRID*               1137               0-2.030790337E+016.2579147223E+00+
*       -6.017770780E+02               0
GRID*               1138               0-1.279147568E+018.7126175738E+00+
*       -6.098173804E+02               0
GRID*               1139               0-2.069170253E+016.2792003798E+00+
*       -6.120066736E+02               0
GRID*               1140               0-1.314143936E+018.7452528255E+00+
*       -6.200673968E+02               0
GRID*               1141               0-2.107271316E+016.2991488366E+00+
*       -6.222361263E+02               0
GRID*               1142               0-1.349016706E+018.7732043521E+00+
*       -6.303174624E+02               0
GRID*               1143               0-2.144980821E+016.3171772492E+00+
*       -6.324653941E+02               0
GRID*               1144               0-1.383757788E+018.7961624566E+00+
*       -6.405675803E+02               0
GRID*               1145               0-2.182215173E+016.3328472415E+00+
*       -6.426944476E+02               0
GRID*               1146               0-1.418371503E+018.8142680892E+00+
*       -6.508177490E+02               0
GRID*               1147               0-2.218917065E+016.3458496920E+00+
*       -6.529232684E+02               0
GRID*               1148               0-1.452878822E+018.8282648832E+00+
*       -6.610679604E+02               0
GRID*               1149               0-2.255054727E+016.3560001055E+00+
*       -6.631518494E+02               0
GRID*               1150               0-1.487326225E+018.8398184105E+00+
*       -6.713181964E+02               0
GRID*               1151               0-2.290622934E+016.3632428389E+00+
*       -6.733801950E+02               0
GRID*               1152               0-1.521904914E+018.8525055062E+00+
*       -6.815683987E+02               0
GRID*               1153               0-2.325645701E+016.3676637143E+00+
*       -6.836083225E+02               0
GRID*               1154               0-1.557685331E+018.8894018812E+00+
*       -6.918182248E+02               0
GRID*               1155               0-2.360180793E+016.3695115806E+00+
*       -6.938362644E+02               0
GRID*               1156               0-1.592367930E+018.9119019166E+00+
*       -7.020683665E+02               0
GRID*               1157               0-2.394326375E+016.3692303941E+00+
*       -7.040640709E+02               0
GRID*               1158               0-1.627108449E+018.9398089520E+00+
*       -7.123184698E+02               0
GRID*               1159               0-2.428230376E+016.3675045943E+00+
*       -7.142918144E+02               0
GRID*               1160               0-1.661935595E+018.9721297715E+00+
*       -7.225685329E+02               0
GRID*               1161               0-2.462103465E+016.3653221621E+00+
*       -7.245195950E+02               0
GRID*               1162               0-1.696813562E+019.0071276234E+00+
*       -7.328185717E+02               0
GRID*               1163               0-2.496237024E+016.3640620893E+00+
*       -7.347475483E+02               0
GRID*               1164               0-1.731699148E+019.0426179381E+00+
*       -7.430686057E+02               0
GRID*               1165               0-2.531028226E+016.3656165801E+00+
*       -7.449758562E+02               0
GRID*               1166               0-1.766540950E+019.0759279974E+00+
*       -7.533186585E+02               0
GRID*               1167               0-2.565576197E+016.3576973556E+00+
*       -7.552051816E+02               0
GRID*               1168               0-1.801277856E+019.1038144364E+00+
*       -7.635687581E+02               0
GRID*               1169               0-2.603658279E+016.3834135216E+00+
*       -7.654331610E+02               0
GRID*               1170               0-1.836025512E+019.1262171204E+00+
*       -7.738188717E+02               0
GRID*               1171               0-2.634601639E+016.3663561313E+00+
*       -7.756637758E+02               0
GRID*               1172               0-1.870791913E+019.1485266066E+00+
*       -7.840689792E+02               0
GRID*               1173               0-2.663052224E+016.3192498624E+00+
*       -7.858952939E+02               0
GRID*               1174               0-1.905559928E+019.1708803951E+00+
*       -7.943190851E+02               0
GRID*               1175               0-2.691254535E+016.2676801447E+00+
*       -7.961269048E+02               0
GRID*               1176               0-1.940329371E+019.1932706782E+00+
*       -8.045691894E+02               0
GRID*               1177               0-2.720504916E+016.2270284410E+00+
*       -8.063581391E+02               0
GRID*               1178               0-1.975100152E+019.2156900911E+00+
*       -8.148192921E+02               0
GRID*               1179               0-2.751465641E+016.2059628527E+00+
*       -8.165887556E+02               0
GRID*               1180               0-2.009872386E+019.2381314266E+00+
*       -8.250693934E+02               0
GRID*               1181               0-2.784249350E+016.2074963532E+00+
*       -8.268187104E+02               0
GRID*               1182               0-2.044645786E+019.2605888940E+00+
*       -8.353194931E+02               0
GRID*               1183               0-2.818315668E+016.2281381961E+00+
*       -8.370481936E+02               0
GRID*               1184               0-2.079419929E+019.2830575007E+00+
*       -8.455695915E+02               0
GRID*               1185               0-2.857571815E+016.2823744860E+00+
*       -8.472758824E+02               0
GRID*               1186               0-2.114194624E+019.3055321882E+00+
*       -8.558196886E+02               0
GRID*               1187               0-2.893100780E+016.2591735011E+00+
*       -8.575049864E+02               0
GRID*               1188               0-2.148969729E+019.3280082074E+00+
*       -8.660697845E+02               0
GRID*               1189               0-2.929612189E+016.2776695091E+00+
*       -8.677336233E+02               0
GRID*               1190               0-2.183745120E+019.3504811362E+00+
*       -8.763198793E+02               0
GRID*               1191               0-2.966100193E+016.2952682158E+00+
*       -8.779622687E+02               0
GRID*               1192               0-2.218520688E+019.3729468640E+00+
*       -8.865699729E+02               0
GRID*               1193               0-3.002572669E+016.3122443792E+00+
*       -8.881909197E+02               0
GRID*               1194               0-2.253296333E+019.3954015790E+00+
*       -8.968200653E+02               0
GRID*               1195               0-3.039035615E+016.3288266753E+00+
*       -8.984195741E+02               0
GRID*               1196               0-2.288071955E+019.4178417489E+00+
*       -9.070701567E+02               0
GRID*               1197               0-3.075493556E+016.3452075500E+00+
*       -9.086482303E+02               0
GRID*               1198               0-2.322847467E+019.4402640840E+00+
*       -9.173202470E+02               0
GRID*               1199               0-3.111949820E+016.3615508578E+00+
*       -9.188768868E+02               0
GRID*               1200               0-2.357622786E+019.4626655236E+00+
*       -9.275703363E+02               0
GRID*               1201               0-3.148406718E+016.3779981934E+00+
*       -9.291055426E+02               0
GRID*               1202               0-2.392397838E+019.4850432185E+00+
*       -9.378204245E+02               0
GRID*               1203               0-3.184865664E+016.3946745764E+00+
*       -9.393341969E+02               0
GRID*               1204               0-2.427172549E+019.5073945154E+00+
*       -9.480705117E+02               0
GRID*               1205               0-3.221327215E+016.4116941179E+00+
*       -9.495628489E+02               0
GRID*               1206               0-2.461946855E+019.5297169417E+00+
*       -9.583205978E+02               0
GRID*               1207               0-3.257791052E+016.4291664096E+00+
*       -9.597914985E+02               0
GRID*               1208               0-2.496720692E+019.5520081920E+00+
*       -9.685706830E+02               0
GRID*               1209               0-3.294230100E+016.4472634723E+00+
*       -9.700201543E+02               0
GRID*               1210               0-2.531494002E+019.5742661161E+00+
*       -9.788207672E+02               0
GRID*               1211               0-3.330573244E+016.4651993444E+00+
*       -9.802488428E+02               0
GRID*               1212               0-2.566266728E+019.5964887068E+00+
*       -9.890708503E+02               0
GRID*               1213               0-3.366875481E+016.4823134773E+00+
*       -9.904775455E+02               0
GRID*               1214               0-2.601038818E+019.6186740902E+00+
*       -9.993209325E+02               0
GRID*               1215               0-3.403139376E+016.4986565249E+00+
*       -1.000706261E+03               0
GRID*               1216               0-2.635810222E+019.6408205155E+00+
*       -1.009571014E+03               0
GRID*               1217               0-3.439367400E+016.5142772279E+00+
*       -1.010934990E+03               0
GRID*               1218               0-2.670580893E+019.6629263462E+00+
*       -1.019821094E+03               0
GRID*               1219               0-3.475561929E+016.5292225269E+00+
*       -1.021163729E+03               0
GRID*               1220               0-2.705350785E+019.6849900522E+00+
*       -1.030071173E+03               0
GRID*               1221               0-3.511725254E+016.5435376670E+00+
*       -1.031392479E+03               0
GRID*               1222               0-2.740119856E+019.7070102016E+00+
*       -1.040321251E+03               0
GRID*               1223               0-3.547859585E+016.5572662942E+00+
*       -1.041621239E+03               0
GRID*               1224               0-2.774888062E+019.7289854539E+00+
*       -1.050571328E+03               0
GRID*               1225               0-3.583967057E+016.5704505452E+00+
*       -1.051850008E+03               0
GRID*               1226               0-2.809655366E+019.7509145536E+00+
*       -1.060821405E+03               0
GRID*               1227               0-3.620049731E+016.5831311307E+00+
*       -1.062078785E+03               0
GRID*               1228               0-2.844421729E+019.7727963199E+00+
*       -1.071071480E+03               0
GRID*               1229               0-3.656109604E+016.5953473713E+00+
*       -1.072307570E+03               0
GRID*               1230               0-2.879187146E+019.7946295771E+00+
*       -1.081321554E+03               0
GRID*               1231               0-3.692148636E+016.6071371395E+00+
*       -1.082536361E+03               0
GRID*               1232               0-2.913951679E+019.8164130626E+00+
*       -1.091571627E+03               0
GRID*               1233               0-3.728168768E+016.6185367638E+00+
*       -1.092765158E+03               0
GRID*               1234               0-2.948715575E+019.8381451537E+00+
*       -1.101821699E+03               0
GRID*               1235               0-3.764171990E+016.6295806374E+00+
*       -1.102993961E+03               0
GRID*               1236               0-2.983479736E+019.8598227600E+00+
*       -1.112071769E+03               0
GRID*               1237               0-3.800160449E+016.6403004691E+00+
*       -1.113222767E+03               0
GRID*               1238               0-3.018246634E+019.8814391909E+00+
*       -1.122321837E+03               0
GRID*               1239               0-3.836136298E+016.6507264207E+00+
*       -1.123451578E+03               0
GRID*               1240               0-3.053013259E+019.9030004918E+00+
*       -1.132571904E+03               0
GRID*               1241               0-3.872100470E+016.6608962880E+00+
*       -1.133680392E+03               0
GRID*               1242               0-3.087778968E+019.9245073030E+00+
*       -1.142821969E+03               0
GRID*               1243               0-3.908054296E+016.6708438286E+00+
*       -1.143909208E+03               0
GRID*               1244               0-3.122543547E+019.9459593245E+00+
*       -1.153072034E+03               0
GRID*               1245               0-3.943999240E+016.6806006772E+00+
*       -1.154138027E+03               0
GRID*               1246               0-3.157306909E+019.9673560070E+00+
*       -1.163322097E+03               0
GRID*               1247               0-3.979936785E+016.6901971546E+00+
*       -1.164366848E+03               0
GRID*               1248               0-3.192069004E+019.9886967468E+00+
*       -1.173572159E+03               0
GRID*               1249               0-4.015868402E+016.6996626179E+00+
*       -1.174595670E+03               0
GRID*               1250               0-3.226829796E+011.0009980945E+01+
*       -1.183822220E+03               0
GRID*               1251               0-4.051795528E+016.7090256148E+00+
*       -1.184824492E+03               0
GRID*               1252               0-3.261589264E+011.0031208000E+01+
*       -1.194072280E+03               0
GRID*               1253               0-4.087719595E+016.7183137727E+00+
*       -1.195053314E+03               0
GRID*               1254               0-3.296347513E+011.0052377039E+01+
*       -1.204322338E+03               0
GRID*               1255               0-4.123642099E+016.7275532946E+00+
*       -1.205282137E+03               0
GRID*               1256               0-3.331104931E+011.0073486538E+01+
*       -1.214572396E+03               0
GRID*               1257               0-4.159564693E+016.7367683375E+00+
*       -1.215510957E+03               0
GRID*               1258               0-3.365862662E+011.0094533196E+01+
*       -1.224822451E+03               0
GRID*               1259               0-4.195489433E+016.7459792105E+00+
*       -1.225739777E+03               0
GRID*               1260               0-3.400624506E+011.0115507387E+01+
*       -1.235072504E+03               0
GRID*               1261               0-4.231419243E+016.7551990214E+00+
*       -1.235968593E+03               0
GRID*               1262               0-3.435401136E+011.0136383019E+01+
*       -1.245322549E+03               0
GRID*               1263               0-4.267357486E+016.7644370759E+00+
*       -1.246197405E+03               0
GRID*               1264               0-3.470182022E+011.0157184486E+01+
*       -1.255572592E+03               0
GRID*               1265               0-4.303302923E+016.7737367560E+00+
*       -1.256426214E+03               0
GRID*               1266               0-3.504963049E+011.0177921057E+01+
*       -1.265822632E+03               0
GRID*               1267               0-4.339255311E+016.7831331733E+00+
*       -1.266655018E+03               0
GRID*               1268               0-3.539743150E+011.0198594780E+01+
*       -1.276072672E+03               0
GRID*               1269               0-4.375215462E+016.7926529055E+00+
*       -1.276883819E+03               0
GRID*               1270               0-3.574521966E+011.0219206035E+01+
*       -1.286322709E+03               0
GRID*               1271               0-4.411184385E+016.8023204983E+00+
*       -1.287112616E+03               0
GRID*               1272               0-3.609299275E+011.0239754888E+01+
*       -1.296572746E+03               0
GRID*               1273               0-4.447162945E+016.8121610399E+00+
*       -1.297341408E+03               0
GRID*               1274               0-3.644074958E+011.0260241167E+01+
*       -1.306822781E+03               0
GRID*               1275               0-4.483152185E+016.8221978703E+00+
*       -1.307570195E+03               0
GRID*               1276               0-3.678848983E+011.0280664494E+01+
*       -1.317072815E+03               0
GRID*               1277               0-4.519153289E+016.8324529186E+00+
*       -1.317798976E+03               0
GRID*               1278               0-3.713621759E+011.0301023435E+01+
*       -1.327322847E+03               0
GRID*               1279               0-4.555167760E+016.8429455271E+00+
*       -1.328027752E+03               0
GRID*               1280               0-3.748394545E+011.0321314481E+01+
*       -1.337572877E+03               0
GRID*               1281               0-4.591197649E+016.8536910129E+00+
*       -1.338256520E+03               0
GRID*               1282               0-3.783170724E+011.0341528922E+01+
*       -1.347822905E+03               0
GRID*               1283               0-4.627246107E+016.8646969903E+00+
*       -1.348485281E+03               0
GRID*               1284               0-3.817960754E+011.0361640710E+01+
*       -1.358072926E+03               0
GRID*               1285               0-4.663318397E+016.8759567298E+00+
*       -1.358714033E+03               0
GRID*               1286               0-3.852795063E+011.0381574729E+01+
*       -1.368322930E+03               0
GRID*               1287               0-4.699420304E+016.8874608737E+00+
*       -1.368942772E+03               0
GRID*               1288               0-3.887631529E+011.0401433165E+01+
*       -1.378572931E+03               0
GRID*               1289               0-4.735540400E+016.8993188845E+00+
*       -1.379171503E+03               0
GRID*               1290               0-3.922433757E+011.0421304957E+01+
*       -1.388822940E+03               0
GRID*               1291               0-4.771665998E+016.9116458139E+00+
*       -1.389400231E+03               0
GRID*               1292               0-3.957152171E+011.0441312150E+01+
*       -1.399072976E+03               0
GRID*               1293               0-4.807787489E+016.9245328014E+00+
*       -1.399628958E+03               0
GRID*               1294               0-3.991847470E+011.0461305783E+01+
*       -1.409323017E+03               0
GRID*               1295               0-4.843919811E+016.9379052765E+00+
*       -1.409857680E+03               0
GRID*               1296               0-4.026532471E+011.0481242619E+01+
*       -1.419573061E+03               0
GRID*               1297               0-4.880070482E+016.9517412869E+00+
*       -1.420086395E+03               0
GRID*               1298               0-4.061208339E+011.0501044563E+01+
*       -1.429823105E+03               0
GRID*               1299               0-4.916243009E+016.9660470914E+00+
*       -1.430315100E+03               0
GRID*               1300               0-4.095875837E+011.0520704283E+01+
*       -1.440073150E+03               0
GRID*               1301               0-4.952439181E+016.9808411667E+00+
*       -1.440543796E+03               0
GRID*               1302               0-4.130537300E+011.0540225720E+01+
*       -1.450323195E+03               0
GRID*               1303               0-4.988660857E+016.9961423545E+00+
*       -1.450772481E+03               0
GRID*               1304               0-4.165194015E+011.0559615282E+01+
*       -1.460573240E+03               0
GRID*               1305               0-5.024909615E+017.0119721948E+00+
*       -1.461001154E+03               0
GRID*               1306               0-4.199846675E+011.0578880789E+01+
*       -1.470823283E+03               0
GRID*               1307               0-5.061186845E+017.0283543813E+00+
*       -1.471229817E+03               0
GRID*               1308               0-4.234495812E+011.0598030437E+01+
*       -1.481073325E+03               0
GRID*               1309               0-5.097493883E+017.0453139988E+00+
*       -1.481458467E+03               0
GRID*               1310               0-4.269141906E+011.0617072514E+01+
*       -1.491323366E+03               0
GRID*               1311               0-5.133832075E+017.0628772576E+00+
*       -1.491687104E+03               0
GRID*               1312               0-4.303785421E+011.0636015325E+01+
*       -1.501573406E+03               0
GRID*               1313               0-5.170202806E+017.0810714757E+00+
*       -1.501915729E+03               0
GRID*               1314               0-4.338426818E+011.0654867156E+01+
*       -1.511823444E+03               0
GRID*               1315               0-5.206607513E+017.0999251683E+00+
*       -1.512144339E+03               0
GRID*               1316               0-4.373066561E+011.0673636274E+01+
*       -1.522073480E+03               0
GRID*               1317               0-5.243047700E+017.1194681883E+00+
*       -1.522372936E+03               0
GRID*               1318               0-4.407705113E+011.0692330923E+01+
*       -1.532323514E+03               0
GRID*               1319               0-5.279524944E+017.1397318979E+00+
*       -1.532601518E+03               0
GRID*               1320               0-4.442342942E+011.0710959326E+01+
*       -1.542573546E+03               0
GRID*               1321               0-5.316040909E+017.1607493654E+00+
*       -1.542830084E+03               0
GRID*               1322               0-4.476980519E+011.0729529693E+01+
*       -1.552823576E+03               0
GRID*               1323               0-5.352597353E+017.1825555885E+00+
*       -1.553058634E+03               0
GRID*               1324               0-4.511618318E+011.0748050213E+01+
*       -1.563073604E+03               0
GRID*               1325               0-5.389226437E+017.2043442830E+00+
*       -1.563287158E+03               0
GRID*               1326               0-4.546256817E+011.0766529067E+01+
*       -1.573323629E+03               0
GRID*               1327               0-5.425804911E+017.2239906068E+00+
*       -1.573515692E+03               0
GRID*               1328               0-4.580896497E+011.0784974423E+01+
*       -1.583573651E+03               0
GRID*               1329               0-5.462296956E+017.2419638134E+00+
*       -1.583744250E+03               0
GRID*               1330               0-4.615537844E+011.0803394443E+01+
*       -1.593823671E+03               0
GRID*               1331               0-5.498723337E+017.2586599301E+00+
*       -1.593972826E+03               0
GRID*               1332               0-4.650181347E+011.0821797279E+01+
*       -1.604073687E+03               0
GRID*               1333               0-5.535100502E+017.2743665922E+00+
*       -1.604201416E+03               0
GRID*               1334               0-4.684827499E+011.0840191082E+01+
*       -1.614323701E+03               0
GRID*               1335               0-5.571441922E+017.2892945409E+00+
*       -1.614430016E+03               0
GRID*               1336               0-4.719476799E+011.0858583998E+01+
*       -1.624573710E+03               0
GRID*               1337               0-5.607758985E+017.3035968818E+00+
*       -1.624658623E+03               0
GRID*               1338               0-4.754129749E+011.0876984173E+01+
*       -1.634823717E+03               0
GRID*               1339               0-5.644061607E+017.3173805606E+00+
*       -1.634887236E+03               0
GRID*               1340               0-4.788786921E+011.0895399665E+01+
*       -1.645073727E+03               0
GRID*               1341               0-5.680359068E+017.3307142731E+00+
*       -1.645116030E+03               0
GRID*               1342               0-4.823450095E+011.0913844499E+01+
*       -1.655324596E+03               0
GRID*               1343               0-5.716661947E+017.3436394999E+00+
*       -1.655346168E+03               0
GRID*               1344               0-4.858124680E+011.0932343946E+01+
*       -1.665579105E+03               0
GRID*               1345               0-5.752985987E+017.3561776111E+00+
*       -1.665581169E+03               0
GRID*               1346               0-4.892824682E+011.0950935618E+01+
*       -1.675843286E+03               0
GRID*               1347               0-5.789362708E+017.3683552301E+00+
*       -1.675831091E+03               0
GRID*               4006               06.6368873596E+011.8470651627E+01+
*       -1.686128174E+03               0
GRID*               4007               06.9239990234E+011.2119405746E+01+
*       3.7475723267E+01               0
GRID*               3824               07.7648902737E+011.1947353020E+01+
*       4.2330612900E+01               0
GRID*               3825               08.6055141206E+011.1633764329E+01+
*       4.7183957574E+01               0
GRID*               3826               09.4459699215E+011.1239177347E+01+
*       5.2036332124E+01               0
GRID*               3827               01.0285371050E+021.0639489711E+01+
*       5.6882617757E+01               0
GRID*               3828               01.1123303308E+029.7768024607E+00+
*       6.1720424666E+01               0
GRID*               3829               01.1958210357E+028.6047222431E+00+
*       6.6540764032E+01               0
GRID*               3830               01.2787734604E+027.0046529904E+00+
*       7.1330020504E+01               0
GRID*               3831               06.9222551979E+011.2153434218E+01+
*       2.9514472004E+01               0
GRID*               3832               06.9205113008E+011.2187462800E+01+
*       1.9053220743E+01               0
GRID*               3833               06.9187674038E+011.2221491382E+01+
*       8.5919694822E+00               0
GRID*               3834               06.9170235068E+011.2255519965E+01+
*       -1.869281779E+00               0
GRID*               3835               06.9152796097E+011.2289548547E+01+
*       -1.233053304E+01               0
GRID*               3836               06.9135357127E+011.2323577129E+01+
*       -2.279178430E+01               0
GRID*               3837               06.9117918156E+011.2357605711E+01+
*       -3.325303556E+01               0
GRID*               3838               06.9100479186E+011.2391634293E+01+
*       -4.371428682E+01               0
GRID*               3839               06.9083040216E+011.2425662876E+01+
*       -5.417553808E+01               0
GRID*               3840               06.9065601245E+011.2459691458E+01+
*       -6.463678934E+01               0
GRID*               3841               06.9048162275E+011.2493720040E+01+
*       -7.509804061E+01               0
GRID*               3842               06.9030723304E+011.2527748622E+01+
*       -8.555929187E+01               0
GRID*               3843               06.9013284334E+011.2561777204E+01+
*       -9.602054313E+01               0
GRID*               3844               06.8995845364E+011.2595805786E+01+
*       -1.064817944E+02               0
GRID*               3845               06.8978406393E+011.2629834369E+01+
*       -1.169430456E+02               0
GRID*               3846               06.8960967423E+011.2663862951E+01+
*       -1.274042969E+02               0
GRID*               3847               06.8943528452E+011.2697891533E+01+
*       -1.378655482E+02               0
GRID*               3848               06.8926124365E+011.2735987692E+01+
*       -1.483267853E+02               0
GRID*               3849               06.8908728620E+011.2775056669E+01+
*       -1.587880190E+02               0
GRID*               3850               06.8891332875E+011.2814125646E+01+
*       -1.692492527E+02               0
GRID*               3851               06.8873937130E+011.2853194622E+01+
*       -1.797104864E+02               0
GRID*               3852               06.8856541385E+011.2892263599E+01+
*       -1.901717202E+02               0
GRID*               3853               06.8839145640E+011.2931332575E+01+
*       -2.006329539E+02               0
GRID*               3854               06.8821749895E+011.2970401552E+01+
*       -2.110941876E+02               0
GRID*               3855               06.8804354151E+011.3009470528E+01+
*       -2.215554213E+02               0
GRID*               3856               06.8786958406E+011.3048539505E+01+
*       -2.320166551E+02               0
GRID*               3857               06.8769562661E+011.3087608481E+01+
*       -2.424778888E+02               0
GRID*               3858               06.8752166916E+011.3126677458E+01+
*       -2.529391225E+02               0
GRID*               3859               06.8734771171E+011.3165746434E+01+
*       -2.634003562E+02               0
GRID*               3860               06.8717375426E+011.3204815411E+01+
*       -2.738615900E+02               0
GRID*               3861               06.8699979681E+011.3243884388E+01+
*       -2.843228237E+02               0
GRID*               3862               06.8682583936E+011.3282953364E+01+
*       -2.947840574E+02               0
GRID*               3863               06.8665188192E+011.3322022341E+01+
*       -3.052452911E+02               0
GRID*               3864               06.8647792447E+011.3361091317E+01+
*       -3.157065248E+02               0
GRID*               3865               06.8630396702E+011.3400160294E+01+
*       -3.261677586E+02               0
GRID*               3866               06.8613000957E+011.3439229270E+01+
*       -3.366289923E+02               0
GRID*               3867               06.8595605212E+011.3478298247E+01+
*       -3.470902260E+02               0
GRID*               3868               06.8578209467E+011.3517367223E+01+
*       -3.575514597E+02               0
GRID*               3869               06.8560813722E+011.3556436200E+01+
*       -3.680126935E+02               0
GRID*               3870               06.8543417978E+011.3595505176E+01+
*       -3.784739272E+02               0
GRID*               3871               06.8526022233E+011.3634574153E+01+
*       -3.889351609E+02               0
GRID*               3872               06.8508626488E+011.3673643130E+01+
*       -3.993963946E+02               0
GRID*               3873               06.8491230743E+011.3712712106E+01+
*       -4.098576284E+02               0
GRID*               3874               06.8473834998E+011.3751781083E+01+
*       -4.203188621E+02               0
GRID*               3875               06.8456439253E+011.3790850059E+01+
*       -4.307800958E+02               0
GRID*               3876               06.8439043508E+011.3829919036E+01+
*       -4.412413295E+02               0
GRID*               3877               06.8421647763E+011.3868988012E+01+
*       -4.517025632E+02               0
GRID*               3878               06.8404252019E+011.3908056989E+01+
*       -4.621637970E+02               0
GRID*               3879               06.8386856274E+011.3947125965E+01+
*       -4.726250307E+02               0
GRID*               3880               06.8369460529E+011.3986194942E+01+
*       -4.830862644E+02               0
GRID*               3881               06.8352064784E+011.4025263918E+01+
*       -4.935474981E+02               0
GRID*               3882               06.8334669039E+011.4064332895E+01+
*       -5.040087319E+02               0
GRID*               3883               06.8317273294E+011.4103401872E+01+
*       -5.144699656E+02               0
GRID*               3884               06.8299877549E+011.4142470848E+01+
*       -5.249311993E+02               0
GRID*               3885               06.8282481804E+011.4181539825E+01+
*       -5.353924330E+02               0
GRID*               3886               06.8265086060E+011.4220608801E+01+
*       -5.458536668E+02               0
GRID*               3887               06.8247690315E+011.4259677778E+01+
*       -5.563149005E+02               0
GRID*               3888               06.8230294570E+011.4298746754E+01+
*       -5.667761342E+02               0
GRID*               3889               06.8212898825E+011.4337815731E+01+
*       -5.772373679E+02               0
GRID*               3890               06.8195503080E+011.4376884707E+01+
*       -5.876986016E+02               0
GRID*               3891               06.8178107335E+011.4415953684E+01+
*       -5.981598354E+02               0
GRID*               3892               06.8160711590E+011.4455022660E+01+
*       -6.086210691E+02               0
GRID*               3893               06.8143315845E+011.4494091637E+01+
*       -6.190823028E+02               0
GRID*               3894               06.8125920101E+011.4533160614E+01+
*       -6.295435365E+02               0
GRID*               3895               06.8108524356E+011.4572229590E+01+
*       -6.400047703E+02               0
GRID*               3896               06.8091128611E+011.4611298567E+01+
*       -6.504660040E+02               0
GRID*               3897               06.8073732866E+011.4650367543E+01+
*       -6.609272377E+02               0
GRID*               3898               06.8056337121E+011.4689436520E+01+
*       -6.713884714E+02               0
GRID*               3899               06.8038941376E+011.4728505496E+01+
*       -6.818497052E+02               0
GRID*               3900               06.8021545631E+011.4767574473E+01+
*       -6.923109389E+02               0
GRID*               3901               06.8004149886E+011.4806643449E+01+
*       -7.027721726E+02               0
GRID*               3902               06.7986754142E+011.4845712426E+01+
*       -7.132334063E+02               0
GRID*               3903               06.7969358397E+011.4884781402E+01+
*       -7.236946401E+02               0
GRID*               3904               06.7951962652E+011.4923850379E+01+
*       -7.341558738E+02               0
GRID*               3905               06.7934566907E+011.4962919356E+01+
*       -7.446171075E+02               0
GRID*               3906               06.7917171162E+011.5001988332E+01+
*       -7.550783412E+02               0
GRID*               3907               06.7899775417E+011.5041057309E+01+
*       -7.655395749E+02               0
GRID*               3908               06.7882379672E+011.5080126285E+01+
*       -7.760008087E+02               0
GRID*               3909               06.7864983927E+011.5119195262E+01+
*       -7.864620424E+02               0
GRID*               3910               06.7847588183E+011.5158264238E+01+
*       -7.969232761E+02               0
GRID*               3911               06.7830192438E+011.5197333215E+01+
*       -8.073845098E+02               0
GRID*               3912               06.7812796693E+011.5236402191E+01+
*       -8.178457436E+02               0
GRID*               3913               06.7795400948E+011.5275471168E+01+
*       -8.283069773E+02               0
GRID*               3914               06.7778005203E+011.5314540145E+01+
*       -8.387682110E+02               0
GRID*               3915               06.7760609458E+011.5353609121E+01+
*       -8.492294447E+02               0
GRID*               3916               06.7743213713E+011.5392678098E+01+
*       -8.596906785E+02               0
GRID*               3917               06.7725817969E+011.5431747074E+01+
*       -8.701519122E+02               0
GRID*               3918               06.7708422224E+011.5470816051E+01+
*       -8.806131459E+02               0
GRID*               3919               06.7691026479E+011.5509885027E+01+
*       -8.910743796E+02               0
GRID*               3920               06.7673630734E+011.5548954004E+01+
*       -9.015356133E+02               0
GRID*               3921               06.7656234989E+011.5588022980E+01+
*       -9.119968471E+02               0
GRID*               3922               06.7638839244E+011.5627091957E+01+
*       -9.224580808E+02               0
GRID*               3923               06.7621443499E+011.5666160933E+01+
*       -9.329193145E+02               0
GRID*               3924               06.7604047754E+011.5705229910E+01+
*       -9.433805482E+02               0
GRID*               3925               06.7586652010E+011.5744298887E+01+
*       -9.538417820E+02               0
GRID*               3926               06.7569256265E+011.5783367863E+01+
*       -9.643030157E+02               0
GRID*               3927               06.7551860520E+011.5822436840E+01+
*       -9.747642494E+02               0
GRID*               3928               06.7534464775E+011.5861505816E+01+
*       -9.852254831E+02               0
GRID*               3929               06.7517069030E+011.5900574793E+01+
*       -9.956867169E+02               0
GRID*               3930               06.7499673285E+011.5939643769E+01+
*       -1.006147951E+03               0
GRID*               3931               06.7482277540E+011.5978712746E+01+
*       -1.016609184E+03               0
GRID*               3932               06.7464881795E+011.6017781722E+01+
*       -1.027070418E+03               0
GRID*               3933               06.7447486051E+011.6056850699E+01+
*       -1.037531652E+03               0
GRID*               3934               06.7430090306E+011.6095919675E+01+
*       -1.047992885E+03               0
GRID*               3935               06.7412694561E+011.6134988652E+01+
*       -1.058454119E+03               0
GRID*               3936               06.7395298816E+011.6174057629E+01+
*       -1.068915353E+03               0
GRID*               3937               06.7377903071E+011.6213126605E+01+
*       -1.079376587E+03               0
GRID*               3938               06.7360507326E+011.6252195582E+01+
*       -1.089837820E+03               0
GRID*               3939               06.7343111581E+011.6291264558E+01+
*       -1.100299054E+03               0
GRID*               3940               06.7325715836E+011.6330333535E+01+
*       -1.110760288E+03               0
GRID*               3941               06.7308320092E+011.6369402511E+01+
*       -1.121221522E+03               0
GRID*               3942               06.7290924347E+011.6408471488E+01+
*       -1.131682755E+03               0
GRID*               3943               06.7273528602E+011.6447540464E+01+
*       -1.142143989E+03               0
GRID*               3944               06.7256132857E+011.6486609441E+01+
*       -1.152605223E+03               0
GRID*               3945               06.7238737112E+011.6525678417E+01+
*       -1.163066456E+03               0
GRID*               3946               06.7221341367E+011.6564747394E+01+
*       -1.173527690E+03               0
GRID*               3947               06.7203945622E+011.6603816371E+01+
*       -1.183988924E+03               0
GRID*               3948               06.7186549877E+011.6642885347E+01+
*       -1.194450158E+03               0
GRID*               3949               06.7169154133E+011.6681954324E+01+
*       -1.204911391E+03               0
GRID*               3950               06.7151758388E+011.6721023300E+01+
*       -1.215372625E+03               0
GRID*               3951               06.7134362643E+011.6760092277E+01+
*       -1.225833859E+03               0
GRID*               3952               06.7116966898E+011.6799161253E+01+
*       -1.236295092E+03               0
GRID*               3953               06.7099571153E+011.6838230230E+01+
*       -1.246756326E+03               0
GRID*               3954               06.7082175408E+011.6877299206E+01+
*       -1.257217560E+03               0
GRID*               3955               06.7064779663E+011.6916368183E+01+
*       -1.267678794E+03               0
GRID*               3956               06.7047383918E+011.6955437159E+01+
*       -1.278140027E+03               0
GRID*               3957               06.7029988174E+011.6994506136E+01+
*       -1.288601261E+03               0
GRID*               3958               06.7012592429E+011.7033575113E+01+
*       -1.299062495E+03               0
GRID*               3959               06.6995196684E+011.7072644089E+01+
*       -1.309523729E+03               0
GRID*               3960               06.6977800939E+011.7111713066E+01+
*       -1.319984962E+03               0
GRID*               3961               06.6960405194E+011.7150782042E+01+
*       -1.330446196E+03               0
GRID*               3962               06.6943009449E+011.7189851019E+01+
*       -1.340907430E+03               0
GRID*               3963               06.6925613704E+011.7228919995E+01+
*       -1.351368663E+03               0
GRID*               3964               06.6908217960E+011.7267988972E+01+
*       -1.361829897E+03               0
GRID*               3965               06.6890822215E+011.7307057948E+01+
*       -1.372291131E+03               0
GRID*               3966               06.6873426470E+011.7346126925E+01+
*       -1.382752365E+03               0
GRID*               3967               06.6856030725E+011.7385195901E+01+
*       -1.393213598E+03               0
GRID*               3968               06.6838634980E+011.7424264878E+01+
*       -1.403674832E+03               0
GRID*               3969               06.6821239235E+011.7463333855E+01+
*       -1.414136066E+03               0
GRID*               3970               06.6803843490E+011.7502402831E+01+
*       -1.424597299E+03               0
GRID*               3971               06.6786447745E+011.7541471808E+01+
*       -1.435058533E+03               0
GRID*               3972               06.6769052001E+011.7580540784E+01+
*       -1.445519767E+03               0
GRID*               3973               06.6751656256E+011.7619609761E+01+
*       -1.455981001E+03               0
GRID*               3974               06.6734260511E+011.7658678737E+01+
*       -1.466442234E+03               0
GRID*               3975               06.6716864766E+011.7697747714E+01+
*       -1.476903468E+03               0
GRID*               3976               06.6699469021E+011.7736816690E+01+
*       -1.487364702E+03               0
GRID*               3977               06.6682073276E+011.7775885667E+01+
*       -1.497825936E+03               0
GRID*               3978               06.6664677531E+011.7814954643E+01+
*       -1.508287169E+03               0
GRID*               3979               06.6647281786E+011.7854023620E+01+
*       -1.518748403E+03               0
GRID*               3980               06.6629886042E+011.7893092597E+01+
*       -1.529209637E+03               0
GRID*               3981               06.6612490297E+011.7932161573E+01+
*       -1.539670870E+03               0
GRID*               3982               06.6595094552E+011.7971230550E+01+
*       -1.550132104E+03               0
GRID*               3983               06.6577695896E+011.8009976000E+01+
*       -1.560593339E+03               0
GRID*               3984               06.6560294037E+011.8048365636E+01+
*       -1.571054575E+03               0
GRID*               3985               06.6542892179E+011.8086755271E+01+
*       -1.581515812E+03               0
GRID*               3986               06.6525490321E+011.8125144907E+01+
*       -1.591977048E+03               0
GRID*               3987               06.6508088462E+011.8163534542E+01+
*       -1.602438284E+03               0
GRID*               3988               06.6490686604E+011.8201924178E+01+
*       -1.612899520E+03               0
GRID*               3989               06.6473284746E+011.8240313813E+01+
*       -1.623360756E+03               0
GRID*               3990               06.6455882888E+011.8278703449E+01+
*       -1.633821993E+03               0
GRID*               3991               06.6438481029E+011.8317093084E+01+
*       -1.644283229E+03               0
GRID*               3992               06.6421079171E+011.8355482720E+01+
*       -1.654744465E+03               0
GRID*               3993               06.6403677313E+011.8393872355E+01+
*       -1.665205701E+03               0
GRID*               3994               06.6386275454E+011.8432261991E+01+
*       -1.675666938E+03               0
GRID*               2496               0-2.394698044E+011.4879224251E+01+
*       -1.675829094E+03               0
GRID*               2497               0-8.378291676E+001.6216783618E+01+
*       -1.675802481E+03               0
GRID*               2498               07.1744313883E+001.7258763292E+01+
*       -1.675775245E+03               0
GRID*               2499               02.2660911241E+011.7886735517E+01+
*       -1.675748006E+03               0
GRID*               2500               03.7972265172E+011.8345696332E+01+
*       -1.675719965E+03               0
GRID*               2501               05.2871812848E+011.8514965295E+01+
*       -1.675692207E+03               0
GRID*               2502               0-2.366485877E+011.4846597440E+01+
*       -1.665530322E+03               0
GRID*               2503               0-8.159470563E+001.6180462829E+01+
*       -1.665476855E+03               0
GRID*               2504               07.2970309538E+001.7218603363E+01+
*       -1.665422620E+03               0
GRID*               2505               02.2626529331E+011.7843525158E+01+
*       -1.665368264E+03               0
GRID*               2506               03.7702551542E+011.8299271603E+01+
*       -1.665313053E+03               0
GRID*               2507               05.2366444406E+011.8477232004E+01+
*       -1.665258329E+03               0
GRID*               2508               0-2.338341552E+011.4814044661E+01+
*       -1.655231659E+03               0
GRID*               2509               0-7.939857772E+001.6144342955E+01+
*       -1.655151302E+03               0
GRID*               2510               07.4306833963E+001.7179049268E+01+
*       -1.655070131E+03               0
GRID*               2511               02.2639520117E+011.7801925242E+01+
*       -1.654988835E+03               0
GRID*               2512               03.7572990917E+011.8255955340E+01+
*       -1.654906690E+03               0
GRID*               2513               05.2159376758E+011.8438802006E+01+
*       -1.654824914E+03               0
GRID*               2514               0-2.310181487E+011.4781637215E+01+
*       -1.644933050E+03               0
GRID*               2515               0-7.717291477E+001.6108580074E+01+
*       -1.644825801E+03               0
GRID*               2516               07.5783129174E+001.7140253913E+01+
*       -1.644717720E+03               0
GRID*               2517               02.2695109698E+011.7761785970E+01+
*       -1.644609532E+03               0
GRID*               2518               03.7537194150E+011.8214770579E+01+
*       -1.644500454E+03               0
GRID*               2519               05.2086796884E+011.8400214717E+01+
*       -1.644391489E+03               0
GRID*               2520               0-2.281963012E+011.4749406726E+01+
*       -1.634634468E+03               0
GRID*               2521               0-7.491150504E+001.6073214063E+01+
*       -1.634500327E+03               0
GRID*               2522               07.7386833541E+001.7102155253E+01+
*       -1.634365333E+03               0
GRID*               2523               02.2782623315E+011.7722744192E+01+
*       -1.634230236E+03               0
GRID*               2524               03.7558903167E+011.8174905174E+01+
*       -1.634094171E+03               0
GRID*               2525               05.2078293267E+011.8361584149E+01+
*       -1.633957951E+03               0
GRID*               2526               0-2.253674477E+011.4717354992E+01+
*       -1.624335898E+03               0
GRID*               2527               0-7.261738617E+001.6038213994E+01+
*       -1.624174863E+03               0
GRID*               2528               07.9089866407E+001.7064608704E+01+
*       -1.624012938E+03               0
GRID*               2529               02.2891835267E+011.7684447270E+01+
*       -1.623850895E+03               0
GRID*               2530               03.7614434159E+011.8135813793E+01+
*       -1.623687791E+03               0
GRID*               2531               05.2101647720E+011.8322936330E+01+
*       -1.623524301E+03               0
GRID*               2532               0-2.225322103E+011.4685467022E+01+
*       -1.614037332E+03               0
GRID*               2533               0-7.029738805E+001.6003519321E+01+
*       -1.613849396E+03               0
GRID*               2534               08.0863274370E+001.7027464110E+01+
*       -1.613660522E+03               0
GRID*               2535               02.3014917975E+011.7646623645E+01+
*       -1.613471498E+03               0
GRID*               2536               03.7689392347E+011.8097160400E+01+
*       -1.613281317E+03               0
GRID*               2537               05.2141339327E+011.8284277626E+01+
*       -1.613090564E+03               0
GRID*               2538               0-2.196919362E+011.4653721518E+01+
*       -1.603738766E+03               0
GRID*               2539               0-6.795875187E+001.5969065849E+01+
*       -1.603523924E+03               0
GRID*               2540               08.2683367200E+001.6990597970E+01+
*       -1.603308081E+03               0
GRID*               2541               02.3146499380E+011.7609086420E+01+
*       -1.603092048E+03               0
GRID*               2542               03.7775337800E+011.8058746715E+01+
*       -1.602874768E+03               0
GRID*               2543               05.2189584962E+011.8245609845E+01+
*       -1.602656766E+03               0
GRID*               2544               0-2.168480495E+011.4622097201E+01+
*       -1.593440200E+03               0
GRID*               2545               0-6.560757133E+001.5934797978E+01+
*       -1.593198445E+03               0
GRID*               2546               08.4532963366E+001.6953920238E+01+
*       -1.592955620E+03               0
GRID*               2547               02.3283128010E+011.7571715454E+01+
*       -1.592712558E+03               0
GRID*               2548               03.7867426218E+011.8020458744E+01+
*       -1.592468167E+03               0
GRID*               2549               05.2242367599E+011.8206933740E+01+
*       -1.592222927E+03               0
GRID*               2550               0-2.140017502E+011.4590575703E+01+
*       -1.583141633E+03               0
GRID*               2551               0-6.324837480E+001.5900672200E+01+
*       -1.582872960E+03               0
GRID*               2552               08.6400526762E+001.6917370052E+01+
*       -1.582603144E+03               0
GRID*               2553               02.3422684280E+011.7534437105E+01+
*       -1.582333041E+03               0
GRID*               2554               03.7962918568E+011.7982232184E+01+
*       -1.582061531E+03               0
GRID*               2555               05.2297574809E+011.8168249829E+01+
*       -1.581789062E+03               0
GRID*               2556               0-2.111539312E+011.4559142289E+01+
*       -1.572843065E+03               0
GRID*               2557               0-6.088426312E+001.5866656244E+01+
*       -1.572547471E+03               0
GRID*               2558               08.8278726627E+001.6880908359E+01+
*       -1.572250657E+03               0
GRID*               2559               02.3563909751E+011.7497207875E+01+
*       -1.571953505E+03               0
GRID*               2560               03.8060285336E+011.7944031382E+01+
*       -1.571654873E+03               0
GRID*               2561               05.2354084091E+011.8129558568E+01+
*       -1.571355181E+03               0
GRID*               2562               0-2.083052036E+011.4527785530E+01+
*       -1.562544496E+03               0
GRID*               2563               0-5.851723605E+001.5832726689E+01+
*       -1.562221979E+03               0
GRID*               2564               09.0163096861E+001.6844511012E+01+
*       -1.561898163E+03               0
GRID*               2565               02.3706077133E+011.7460002878E+01+
*       -1.561573958E+03               0
GRID*               2566               03.8158682228E+011.7905836932E+01+
*       -1.561248202E+03               0
GRID*               2567               05.2411296622E+011.8090860381E+01+
*       -1.560921291E+03               0
GRID*               2568               0-2.054559607E+011.4496496607E+01+
*       -1.552245927E+03               0
GRID*               2569               0-5.614852391E+001.5798866463E+01+
*       -1.551896486E+03               0
GRID*               2570               09.2051007419E+001.6808163462E+01+
*       -1.551545666E+03               0
GRID*               2571               02.3848775500E+011.7422808313E+01+
*       -1.551194405E+03               0
GRID*               2572               03.8257648430E+011.7867638526E+01+
*       -1.550841524E+03               0
GRID*               2573               05.2468893522E+011.8052155658E+01+
*       -1.550487396E+03               0
GRID*               2574               0-2.026064428E+011.4465268616E+01+
*       -1.541947358E+03               0
GRID*               2575               0-5.377885439E+001.5765062802E+01+
*       -1.541570993E+03               0
GRID*               2576               09.3940952823E+001.6771857074E+01+
*       -1.541193168E+03               0
GRID*               2577               02.3991777156E+011.7385616781E+01+
*       -1.540814850E+03               0
GRID*               2578               03.8356935066E+011.7829430874E+01+
*       -1.540434843E+03               0
GRID*               2579               05.2526704872E+011.8013444752E+01+
*       -1.540053498E+03               0
GRID*               2580               0-1.997567905E+011.4434095999E+01+
*       -1.531648789E+03               0
GRID*               2581               0-5.140864307E+001.5731305775E+01+
*       -1.531245500E+03               0
GRID*               2582               09.5832092212E+001.6735586747E+01+
*       -1.530840670E+03               0
GRID*               2583               02.4134958104E+011.7348424488E+01+
*       -1.530435294E+03               0
GRID*               2584               03.8456409081E+011.7791211418E+01+
*       -1.530028160E+03               0
GRID*               2585               05.2584640180E+011.7974727977E+01+
*       -1.529619599E+03               0
GRID*               2586               0-1.969070823E+011.4402974136E+01+
*       -1.521350221E+03               0
GRID*               2587               0-4.903811931E+001.5697587303E+01+
*       -1.520920008E+03               0
GRID*               2588               09.7723966258E+001.6699349450E+01+
*       -1.520488173E+03               0
GRID*               2589               02.4278251908E+011.7311229619E+01+
*       -1.520055739E+03               0
GRID*               2590               03.8556000162E+011.7752979073E+01+
*       -1.519621477E+03               0
GRID*               2591               05.2642652018E+011.7936005608E+01+
*       -1.519185700E+03               0
GRID*               2592               0-1.940573598E+011.4371899065E+01+
*       -1.511051653E+03               0
GRID*               2593               0-4.666740474E+001.5663900535E+01+
*       -1.510594517E+03               0
GRID*               2594               09.9616329600E+001.6663143352E+01+
*       -1.510135677E+03               0
GRID*               2595               02.4421623549E+011.7274031421E+01+
*       -1.509676184E+03               0
GRID*               2596               03.8655671603E+011.7714733532E+01+
*       -1.509214795E+03               0
GRID*               2597               05.2700715740E+011.7897277884E+01+
*       -1.508751802E+03               0
GRID*               2598               0-1.912076431E+011.4340867306E+01+
*       -1.500753086E+03               0
GRID*               2599               0-4.429655989E+001.5630239472E+01+
*       -1.500269027E+03               0
GRID*               2600               01.0150905495E+011.6626967325E+01+
*       -1.499783183E+03               0
GRID*               2601               02.4565054944E+011.7236829692E+01+
*       -1.499296632E+03               0
GRID*               2602               03.8755404529E+011.7676474889E+01+
*       -1.498808115E+03               0
GRID*               2603               05.2758818681E+011.7858545010E+01+
*       -1.498317903E+03               0
GRID*               2604               0-1.883579395E+011.4309875746E+01+
*       -1.490454519E+03               0
GRID*               2605               0-4.192561065E+001.5596598753E+01+
*       -1.489943538E+03               0
GRID*               2606               01.0340207981E+011.6590820665E+01+
*       -1.489430691E+03               0
GRID*               2607               02.4708537076E+011.7199624510E+01+
*       -1.488917081E+03               0
GRID*               2608               03.8855189468E+011.7638203443E+01+
*       -1.488401436E+03               0
GRID*               2609               05.2817011902E+011.7819773971E+01+
*       -1.487883997E+03               0
GRID*               2610               0-1.855082478E+011.4278921578E+01+
*       -1.480155953E+03               0
GRID*               2611               0-3.955456225E+001.5562973532E+01+
*       -1.479618051E+03               0
GRID*               2612               01.0529537844E+011.6554702950E+01+
*       -1.479078200E+03               0
GRID*               2613               02.4852065887E+011.7162416092E+01+
*       -1.478537532E+03               0
GRID*               2614               03.8955021985E+011.7599919593E+01+
*       -1.477994758E+03               0
GRID*               2615               05.2875395604E+011.7780333325E+01+
*       -1.477450068E+03               0
GRID*               2616               0-1.826585588E+011.4248002281E+01+
*       -1.469857388E+03               0
GRID*               2617               0-3.718340200E+001.5529359456E+01+
*       -1.469292565E+03               0
GRID*               2618               01.0718895284E+011.6518613994E+01+
*       -1.468725711E+03               0
GRID*               2619               02.4995640704E+011.7125204741E+01+
*       -1.468157986E+03               0
GRID*               2620               03.9054900941E+011.7561623799E+01+
*       -1.467588082E+03               0
GRID*               2621               05.2933808196E+011.7740063117E+01+
*       -1.467016142E+03               0
GRID*               2622               0-1.798088463E+011.4217115684E+01+
*       -1.459558824E+03               0
GRID*               2623               0-3.481208721E+001.5495752754E+01+
*       -1.458967081E+03               0
GRID*               2624               01.0908284280E+011.6482553897E+01+
*       -1.458373225E+03               0
GRID*               2625               02.5139264796E+011.7087990872E+01+
*       -1.457778442E+03               0
GRID*               2626               03.9154828587E+011.7523316580E+01+
*       -1.457181409E+03               0
GRID*               2627               05.2992250544E+011.7699055409E+01+
*       -1.456582220E+03               0
GRID*               2628               0-1.769590476E+011.4186260146E+01+
*       -1.449260261E+03               0
GRID*               2629               0-3.244051973E+001.5462150442E+01+
*       -1.448641599E+03               0
GRID*               2630               01.1097714890E+011.6446523175E+01+
*       -1.448020741E+03               0
GRID*               2631               02.5282946977E+011.7050775076E+01+
*       -1.447398900E+03               0
GRID*               2632               03.9254811362E+011.7484998542E+01+
*       -1.446774737E+03               0
GRID*               2633               05.3050725792E+011.7657387344E+01+
*       -1.446148302E+03               0
GRID*               2634               0-1.741090352E+011.4155434818E+01+
*       -1.438961699E+03               0
GRID*               2635               0-3.006852120E+001.5428550530E+01+
*       -1.438316120E+03               0
GRID*               2636               01.1287204838E+011.6410522840E+01+
*       -1.437668261E+03               0
GRID*               2637               02.5426702227E+011.7013558148E+01+
*       -1.437019363E+03               0
GRID*               2638               03.9354859785E+011.7446670371E+01+
*       -1.436368068E+03               0
GRID*               2639               05.3109239031E+011.7615124184E+01+
*       -1.435714386E+03               0
GRID*               2640               0-1.712585848E+011.4124639941E+01+
*       -1.428663140E+03               0
GRID*               2641               0-2.769582846E+001.5394952054E+01+
*       -1.427990645E+03               0
GRID*               2642               01.1476778393E+011.6374554350E+01+
*       -1.427315785E+03               0
GRID*               2643               02.5570549750E+011.6976341015E+01+
*       -1.426639829E+03               0
GRID*               2644               03.9454986561E+011.7408332790E+01+
*       -1.425961403E+03               0
GRID*               2645               05.3167796156E+011.7572321665E+01+
*       -1.425280475E+03               0
GRID*               2646               0-1.684073767E+011.4093876821E+01+
*       -1.418364585E+03               0
GRID*               2647               0-2.532182498E+001.5361309837E+01+
*       -1.417665175E+03               0
GRID*               2648               01.1666462515E+011.6338619409E+01+
*       -1.416963315E+03               0
GRID*               2649               02.5714508853E+011.6939124593E+01+
*       -1.416260301E+03               0
GRID*               2650               03.9555203447E+011.7369986481E+01+
*       -1.415554741E+03               0
GRID*               2651               05.3226402280E+011.7529027865E+01+
*       -1.414846567E+03               0
GRID*               2652               0-1.655551291E+011.4063146519E+01+
*       -1.408066034E+03               0
GRID*               2653               0-2.294579236E+001.5327330318E+01+
*       -1.407339713E+03               0
GRID*               2654               01.1856282439E+011.6302719740E+01+
*       -1.406610851E+03               0
GRID*               2655               02.5858594551E+011.6901909624E+01+
*       -1.405880777E+03               0
GRID*               2656               03.9655518227E+011.7331632017E+01+
*       -1.405148083E+03               0
GRID*               2657               05.3285060343E+011.7485284692E+01+
*       -1.404412663E+03               0
GRID*               2658               0-1.627011668E+011.4032454047E+01+
*       -1.397767491E+03               0
GRID*               2659               0-2.056750694E+001.5292986078E+01+
*       -1.397014262E+03               0
GRID*               2660               01.2046258417E+011.6266856909E+01+
*       -1.396258393E+03               0
GRID*               2661               02.6002814224E+011.6864696556E+01+
*       -1.395501259E+03               0
GRID*               2662               03.9755932792E+011.7293269811E+01+
*       -1.394741429E+03               0
GRID*               2663               05.3343770341E+011.7441129054E+01+
*       -1.393978762E+03               0
GRID*               2664               0-1.598439631E+011.4001812829E+01+
*       -1.387468958E+03               0
GRID*               2665               0-1.818648617E+001.5258310601E+01+
*       -1.386688821E+03               0
GRID*               2666               01.2236399802E+011.6231032019E+01+
*       -1.385905941E+03               0
GRID*               2667               02.6147164935E+011.6827485444E+01+
*       -1.385121746E+03               0
GRID*               2668               03.9856442426E+011.7254900103E+01+
*       -1.384334778E+03               0
GRID*               2669               05.3402529258E+011.7396593786E+01+
*       -1.383544865E+03               0
GRID*               2670               0-1.569804765E+011.3971251145E+01+
*       -1.377170447E+03               0
GRID*               2671               0-1.580253113E+001.5223337540E+01+
*       -1.376363391E+03               0
GRID*               2672               01.2426692302E+011.6195245028E+01+
*       -1.375553496E+03               0
GRID*               2673               02.6291631184E+011.6790275865E+01+
*       -1.374742237E+03               0
GRID*               2674               03.9957036268E+011.7216522966E+01+
*       -1.373928130E+03               0
GRID*               2675               05.3461331616E+011.7351708342E+01+
*       -1.373110970E+03               0
GRID*               2676               0-1.541146073E+011.3940729688E+01+
*       -1.366871943E+03               0
GRID*               2677               0-1.341684111E+001.5188092467E+01+
*       -1.366037969E+03               0
GRID*               2678               01.2617085805E+011.6159494083E+01+
*       -1.365201054E+03               0
GRID*               2679               02.6436186130E+011.6753066967E+01+
*       -1.364362732E+03               0
GRID*               2680               04.0057699411E+011.7178138363E+01+
*       -1.363521485E+03               0
GRID*               2681               05.3520170592E+011.7306499328E+01+
*       -1.362677078E+03               0
GRID*               2682               0-1.512493117E+011.3910218487E+01+
*       -1.356573437E+03               0
GRID*               2683               0-1.103072039E+001.5152603187E+01+
*       -1.355712549E+03               0
GRID*               2684               01.2807523930E+011.6123777090E+01+
*       -1.354848614E+03               0
GRID*               2685               02.6580801250E+011.6715857822E+01+
*       -1.353983229E+03               0
GRID*               2686               04.0158416836E+011.7139746240E+01+
*       -1.353114841E+03               0
GRID*               2687               05.3579039524E+011.7260990877E+01+
*       -1.352243189E+03               0
GRID*               2688               0-1.483871363E+011.3879691681E+01+
*       -1.346274921E+03               0
GRID*               2689               0-8.645053972E-011.5116903474E+01+
*       -1.345387128E+03               0
GRID*               2690               01.2997967564E+011.6088092967E+01+
*       -1.344496175E+03               0
GRID*               2691               02.6725455312E+011.6678647758E+01+
*       -1.343603727E+03               0
GRID*               2692               04.0259176925E+011.7101346611E+01+
*       -1.342708199E+03               0
GRID*               2693               05.3637933167E+011.7215204955E+01+
*       -1.341809301E+03               0
GRID*               2694               0-1.455261309E+011.3849167306E+01+
*       -1.335976402E+03               0
GRID*               2695               0-6.259749031E-011.5081036902E+01+
*       -1.335061708E+03               0
GRID*               2696               01.3188406316E+011.6052442274E+01+
*       -1.334143736E+03               0
GRID*               2697               02.6870138060E+011.6641436496E+01+
*       -1.333224227E+03               0
GRID*               2698               04.0359972918E+011.7062939595E+01+
*       -1.332301558E+03               0
GRID*               2699               05.3696848228E+011.7169161615E+01+
*       -1.331375415E+03               0
GRID*               2700               0-1.426656800E+011.3818650467E+01+
*       -1.325677883E+03               0
GRID*               2701               0-3.874666653E-011.5045049749E+01+
*       -1.324736289E+03               0
GRID*               2702               01.3378841754E+011.6016826331E+01+
*       -1.323791299E+03               0
GRID*               2703               02.7014846779E+011.6604224030E+01+
*       -1.322844728E+03               0
GRID*               2704               04.0460802088E+011.7024525398E+01+
*       -1.321894919E+03               0
GRID*               2705               05.3755783143E+011.7122879256E+01+
*       -1.320941532E+03               0
GRID*               2706               0-1.398055089E+011.3788143019E+01+
*       -1.315379363E+03               0
GRID*               2707               0-1.489710528E-011.5008990455E+01+
*       -1.314410870E+03               0
GRID*               2708               01.3569279273E+011.5981246788E+01+
*       -1.313438862E+03               0
GRID*               2709               02.7159582595E+011.6567010485E+01+
*       -1.312465231E+03               0
GRID*               2710               04.0561664147E+011.6986104270E+01+
*       -1.311488280E+03               0
GRID*               2711               05.3814737454E+011.7076374858E+01+
*       -1.310507650E+03               0
GRID*               2712               0-1.369454852E+011.3757645505E+01+
*       -1.305080843E+03               0
GRID*               2713               08.9516298060E-021.4972909693E+01+
*       -1.304085453E+03               0
GRID*               2714               01.3759724160E+011.5945705421E+01+
*       -1.303086427E+03               0
GRID*               2715               02.7304347672E+011.6529796020E+01+
*       -1.302085736E+03               0
GRID*               2716               04.0662559660E+011.6947676472E+01+
*       -1.301081644E+03               0
GRID*               2717               05.3873711117E+011.7029664195E+01+
*       -1.300073770E+03               0
GRID*               2718               0-1.340855452E+011.3727157870E+01+
*       -1.294782325E+03               0
GRID*               2719               03.2799494242E-011.4936860579E+01+
*       -1.293760037E+03               0
GRID*               2720               01.3950179691E+011.5910204033E+01+
*       -1.292733993E+03               0
GRID*               2721               02.7449143364E+011.6492580758E+01+
*       -1.291706242E+03               0
GRID*               2722               04.0763488853E+011.6909242245E+01+
*       -1.290675009E+03               0
GRID*               2723               05.3932703965E+011.6982762013E+01+
*       -1.289639891E+03               0
GRID*               2724               0-1.312256666E+011.3696679726E+01+
*       -1.284483806E+03               0
GRID*               2725               05.6646002805E-011.4900898889E+01+
*       -1.283434622E+03               0
GRID*               2726               01.4140646311E+011.5874744414E+01+
*       -1.282381561E+03               0
GRID*               2727               02.7593969290E+011.6455364751E+01+
*       -1.281326750E+03               0
GRID*               2728               04.0864451000E+011.6870801795E+01+
*       -1.280268375E+03               0
GRID*               2729               05.3991715434E+011.6935682182E+01+
*       -1.279206015E+03               0
GRID*               2730               0-1.283658591E+011.3666210441E+01+
*       -1.274185288E+03               0
GRID*               2731               08.0490261988E-011.4865083295E+01+
*       -1.273109206E+03               0
GRID*               2732               01.4331121602E+011.5839328338E+01+
*       -1.272029130E+03               0
GRID*               2733               02.7738823267E+011.6418147982E+01+
*       -1.270947260E+03               0
GRID*               2734               04.0965444409E+011.6832355293E+01+
*       -1.269861742E+03               0
GRID*               2735               05.4050744582E+011.6888437801E+01+
*       -1.268772140E+03               0
GRID*               2736               0-1.255061655E+011.3635749131E+01+
*       -1.263886771E+03               0
GRID*               2737               01.0433099351E+001.4829475619E+01+
*       -1.262783791E+03               0
GRID*               2738               01.4521600800E+011.5803957598E+01+
*       -1.261676700E+03               0
GRID*               2739               02.7883701842E+011.6380930378E+01+
*       -1.260567771E+03               0
GRID*               2740               04.1066466832E+011.6793902887E+01+
*       -1.259455111E+03               0
GRID*               2741               05.4109790293E+011.6841041283E+01+
*       -1.258338267E+03               0
GRID*               2742               0-1.226466763E+011.3605294513E+01+
*       -1.253588254E+03               0
GRID*               2743               01.2816652478E+001.4794141084E+01+
*       -1.252458374E+03               0
GRID*               2744               01.4712077589E+011.5768634052E+01+
*       -1.251324271E+03               0
GRID*               2745               02.8028601159E+011.6343711850E+01+
*       -1.250188284E+03               0
GRID*               2746               04.1167516059E+011.6755444714E+01+
*       -1.249048481E+03               0
GRID*               2747               05.4168851561E+011.6793504419E+01+
*       -1.247904395E+03               0
GRID*               2748               0-1.197875814E+011.3574844405E+01+
*       -1.243289736E+03               0
GRID*               2749               01.5199475620E+001.4759148571E+01+
*       -1.242132955E+03               0
GRID*               2750               01.4902545246E+011.5733359687E+01+
*       -1.240971842E+03               0
GRID*               2751               02.8173517978E+011.6306492326E+01+
*       -1.239808797E+03               0
GRID*               2752               04.1268590544E+011.6716980920E+01+
*       -1.238641852E+03               0
GRID*               2753               05.4227927756E+011.6745838432E+01+
*       -1.237470525E+03               0
GRID*               2754               0-1.169292906E+011.3544394547E+01+
*       -1.232991216E+03               0
GRID*               2755               01.7577147763E+001.4724690798E+01+
*       -1.231807524E+03               0
GRID*               2756               01.5092998795E+011.5698136748E+01+
*       -1.230619414E+03               0
GRID*               2757               02.8318450843E+011.6269271796E+01+
*       -1.229429312E+03               0
GRID*               2758               04.1369689911E+011.6678511666E+01+
*       -1.228235224E+03               0
GRID*               2759               05.4287018807E+011.6698054027E+01+
*       -1.227036656E+03               0
GRID*               2760               0-1.140723176E+011.3513939734E+01+
*       -1.222692692E+03               0
GRID*               2761               01.9923607107E+001.4698447783E+01+
*       -1.221481996E+03               0
GRID*               2762               01.5283438670E+011.5662967954E+01+
*       -1.220266986E+03               0
GRID*               2763               02.8463401115E+011.6232050355E+01+
*       -1.219049828E+03               0
GRID*               2764               04.1470815221E+011.6640037141E+01+
*       -1.217828598E+03               0
GRID*               2765               05.4346125250E+011.6650161441E+01+
*       -1.216602788E+03               0
GRID*               2766               0-1.112158501E+011.3483487750E+01+
*       -1.212394168E+03               0
GRID*               2767               02.2257673555E+001.4683126346E+01+
*       -1.211156408E+03               0
GRID*               2768               01.5473872589E+011.5627856613E+01+
*       -1.209914559E+03               0
GRID*               2769               02.8608372890E+011.6194828192E+01+
*       -1.208670346E+03               0
GRID*               2770               04.1571968737E+011.6601557552E+01+
*       -1.207421972E+03               0
GRID*               2771               05.4405248099E+011.6602170495E+01+
*       -1.206168922E+03               0
GRID*               2772               0-1.083596188E+011.3453041159E+01+
*       -1.202095644E+03               0
GRID*               2773               02.4583876679E+001.4674450884E+01+
*       -1.200830782E+03               0
GRID*               2774               01.5664308997E+011.5592806274E+01+
*       -1.199562133E+03               0
GRID*               2775               02.8753371147E+011.6157605531E+01+
*       -1.198290865E+03               0
GRID*               2776               04.1673153240E+011.6563073112E+01+
*       -1.197015348E+03               0
GRID*               2777               05.4464388586E+011.6554090651E+01+
*       -1.195735058E+03               0
GRID*               2778               0-1.055034958E+011.3422601222E+01+
*       -1.191797120E+03               0
GRID*               2779               02.6909577348E+001.4666067718E+01+
*       -1.190505156E+03               0
GRID*               2780               01.5854755012E+011.5557820618E+01+
*       -1.189209709E+03               0
GRID*               2781               02.8898400547E+011.6120382578E+01+
*       -1.187911386E+03               0
GRID*               2782               04.1774371426E+011.6524584021E+01+
*       -1.186608726E+03               0
GRID*               2783               05.4523547912E+011.6505931058E+01+
*       -1.185301195E+03               0
GRID*               2784               0-1.026474149E+011.3392168673E+01+
*       -1.181498597E+03               0
GRID*               2785               02.9245109190E+001.4649423665E+01+
*       -1.180179579E+03               0
GRID*               2786               01.6045215890E+011.5522903435E+01+
*       -1.178857286E+03               0
GRID*               2787               02.9043464838E+011.6083159506E+01+
*       -1.177531909E+03               0
GRID*               2788               04.1875625511E+011.6486090459E+01+
*       -1.176202105E+03               0
GRID*               2789               05.4582727058E+011.6457700600E+01+
*       -1.174867334E+03               0
GRID*               2790               0-9.979134092E+001.3361744027E+01+
*       -1.171200075E+03               0
GRID*               2791               03.1616240761E+001.4618936659E+01+
*       -1.169854134E+03               0
GRID*               2792               01.6235695066E+011.5488058633E+01+
*       -1.168504864E+03               0
GRID*               2793               02.9188566624E+011.6045936442E+01+
*       -1.167152434E+03               0
GRID*               2794               04.1976917040E+011.6447592581E+01+
*       -1.165795486E+03               0
GRID*               2795               05.4641926696E+011.6409407921E+01+
*       -1.164433474E+03               0
GRID*               2796               0-9.693525585E+001.3331327710E+01+
*       -1.160901554E+03               0
GRID*               2797               03.4000311995E+001.4584391313E+01+
*       -1.159528750E+03               0
GRID*               2798               01.6426194351E+011.5453290256E+01+
*       -1.158152444E+03               0
GRID*               2799               02.9333707375E+011.6008713470E+01+
*       -1.156772961E+03               0
GRID*               2800               04.2078246852E+011.6409090516E+01+
*       -1.155388868E+03               0
GRID*               2801               05.4701147168E+011.6361061454E+01+
*       -1.153999615E+03               0
GRID*               2802               0-9.407915385E+001.3300920118E+01+
*       -1.150603033E+03               0
GRID*               2803               03.6386529497E+001.4548263357E+01+
*       -1.149203382E+03               0
GRID*               2804               01.6616714217E+011.5418602513E+01+
*       -1.147800025E+03               0
GRID*               2805               02.9478887601E+011.5971490633E+01+
*       -1.146393490E+03               0
GRID*               2806               04.2179615198E+011.6370584371E+01+
*       -1.144982252E+03               0
GRID*               2807               05.4760388547E+011.6312669436E+01+
*       -1.143565758E+03               0
GRID*               2808               0-9.122303898E+001.3270521643E+01+
*       -1.140304513E+03               0
GRID*               2809               03.8773406668E+001.4511909947E+01+
*       -1.138878015E+03               0
GRID*               2810               01.6807254113E+011.5383999797E+01+
*       -1.137447608E+03               0
GRID*               2811               02.9624107128E+011.5934267950E+01+
*       -1.136014021E+03               0
GRID*               2812               04.2281021931E+011.6332074234E+01+
*       -1.134575637E+03               0
GRID*               2813               05.4819650734E+011.6264239922E+01+
*       -1.133131903E+03               0
GRID*               2814               0-8.836692687E+001.3240132659E+01+
*       -1.130005994E+03               0
GRID*               2815               04.1159848201E+001.4476289753E+01+
*       -1.128552637E+03               0
GRID*               2816               01.6997812787E+011.5349486720E+01+
*       -1.127095192E+03               0
GRID*               2817               02.9769365414E+011.5897045422E+01+
*       -1.125634554E+03               0
GRID*               2818               04.2382466729E+011.6293560180E+01+
*       -1.124169024E+03               0
GRID*               2819               05.4878933569E+011.6215780797E+01+
*       -1.122698049E+03               0
GRID*               2820               0-8.551085399E+001.3209753443E+01+
*       -1.119707475E+03               0
GRID*               2821               04.3545109782E+001.4442001913E+01+
*       -1.118227240E+03               0
GRID*               2822               01.7188388631E+011.5315068143E+01+
*       -1.116742777E+03               0
GRID*               2823               02.9914661881E+011.5859823050E+01+
*       -1.115255088E+03               0
GRID*               2824               04.2483949311E+011.6255042279E+01+
*       -1.113762413E+03               0
GRID*               2825               05.4938236921E+011.6167299782E+01+
*       -1.112264196E+03               0
GRID*               2826               0-8.265490603E+001.3179383899E+01+
*       -1.109408957E+03               0
GRID*               2827               04.5928773184E+001.4409312023E+01+
*       -1.107901823E+03               0
GRID*               2828               01.7378980236E+011.5280749219E+01+
*       -1.106390364E+03               0
GRID*               2829               03.0059996263E+011.5822600842E+01+
*       -1.104875625E+03               0
GRID*               2830               04.2585469605E+011.6216520596E+01+
*       -1.103355803E+03               0
GRID*               2831               05.4997560762E+011.6118804445E+01+
*       -1.101830345E+03               0
GRID*               2832               0-7.979923741E+001.3149023380E+01+
*       -1.099110438E+03               0
GRID*               2833               04.8310754429E+001.4378166367E+01+
*       -1.097576386E+03               0
GRID*               2834               01.7569587391E+011.5246535471E+01+
*       -1.096037951E+03               0
GRID*               2835               03.0205368934E+011.5785378830E+01+
*       -1.094496164E+03               0
GRID*               2836               04.2687027858E+011.6177995198E+01+
*       -1.092949195E+03               0
GRID*               2837               05.5056905193E+011.6070302215E+01+
*       -1.091396495E+03               0
GRID*               2838               0-7.694364380E+001.3118674874E+01+
*       -1.088811920E+03               0
GRID*               2839               05.0691356667E+001.4348194708E+01+
*       -1.087250937E+03               0
GRID*               2840               01.7760211765E+011.5212432850E+01+
*       -1.085685540E+03               0
GRID*               2841               03.0350780941E+011.5748157071E+01+
*       -1.084116704E+03               0
GRID*               2842               04.2788624591E+011.6139466149E+01+
*       -1.082542588E+03               0
GRID*               2843               05.5116270419E+011.6021800388E+01+
*       -1.080962646E+03               0
GRID*               2844               0-7.408806496E+001.3088340104E+01+
*       -1.078513403E+03               0
GRID*               2845               05.3071190035E+001.4318698515E+01+
*       -1.076925486E+03               0
GRID*               2846               01.7950855068E+011.5178447642E+01+
*       -1.075333130E+03               0
GRID*               2847               03.0496233496E+011.5710935625E+01+
*       -1.073737246E+03               0
GRID*               2848               04.2890260426E+011.6100933509E+01+
*       -1.072135983E+03               0
GRID*               2849               05.5175656687E+011.5973306146E+01+
*       -1.070528799E+03               0
GRID*               2850               0-7.123247342E+001.3058020628E+01+
*       -1.068214886E+03               0
GRID*               2851               05.5451197920E+001.4288624665E+01+
*       -1.066600048E+03               0
GRID*               2852               01.8141610028E+011.5144557572E+01+
*       -1.064980724E+03               0
GRID*               2853               03.0641727705E+011.5673714548E+01+
*       -1.063357791E+03               0
GRID*               2854               04.2991935952E+011.6062397329E+01+
*       -1.061729379E+03               0
GRID*               2855               05.5235064228E+011.5924826566E+01+
*       -1.060094953E+03               0
GRID*               2856               0-6.837685586E+001.3027718035E+01+
*       -1.057916370E+03               0
GRID*               2857               05.7829242975E+001.4257117785E+01+
*       -1.056274627E+03               0
GRID*               2858               01.8332614361E+011.5110245989E+01+
*       -1.054628335E+03               0
GRID*               2859               03.0787264463E+011.5636493887E+01+
*       -1.052978337E+03               0
GRID*               2860               04.3093651646E+011.6023857650E+01+
*       -1.051322777E+03               0
GRID*               2861               05.5294493231E+011.5876368628E+01+
*       -1.049661108E+03               0
GRID*               2862               0-6.552120574E+001.2997434030E+01+
*       -1.047617855E+03               0
GRID*               2863               06.0205970426E+001.4225402755E+01+
*       -1.045949206E+03               0
GRID*               2864               01.8523666431E+011.5075346144E+01+
*       -1.044275959E+03               0
GRID*               2865               03.0932844437E+011.5599273679E+01+
*       -1.042598886E+03               0
GRID*               2866               04.3195407865E+011.5985314501E+01+
*       -1.040916177E+03               0
GRID*               2867               05.5353943824E+011.5827939224E+01+
*       -1.039227264E+03               0
GRID*               2868               0-6.266552021E+001.2967170491E+01+
*       -1.037319340E+03               0
GRID*               2869               06.2582917890E+001.4193640839E+01+
*       -1.035623788E+03               0
GRID*               2870               01.8714765985E+011.5039889929E+01+
*       -1.033923596E+03               0
GRID*               2871               03.1078468101E+011.5562053954E+01+
*       -1.032219437E+03               0
GRID*               2872               04.3297204842E+011.5946767903E+01+
*       -1.030509579E+03               0
GRID*               2873               05.5413416084E+011.5779545164E+01+
*       -1.028793422E+03               0
GRID*               2874               0-5.980979862E+001.2936929499E+01+
*       -1.027020826E+03               0
GRID*               2875               06.4960089866E+001.4161832983E+01+
*       -1.025298371E+03               0
GRID*               2876               01.8905912627E+011.5003908139E+01+
*       -1.023571246E+03               0
GRID*               2877               03.1224135777E+011.5524834734E+01+
*       -1.021839989E+03               0
GRID*               2878               04.3399042718E+011.5908217865E+01+
*       -1.020102981E+03               0
GRID*               2879               05.5472910040E+011.5731193182E+01+
*       -1.018359581E+03               0
GRID*               2880               0-5.695404175E+001.2906713374E+01+
*       -1.016722313E+03               0
GRID*               2881               06.7337489527E+001.4129979986E+01+
*       -1.014972956E+03               0
GRID*               2882               01.9097105876E+011.4967430530E+01+
*       -1.013218907E+03               0
GRID*               2883               03.1369847679E+011.5487616036E+01+
*       -1.011460544E+03               0
GRID*               2884               04.3500921559E+011.5869664387E+01+
*       -1.009696386E+03               0
GRID*               2885               05.5532425687E+011.5682889937E+01+
*       -1.007925741E+03               0
GRID*               2886               0-5.409825143E+001.2876524705E+01+
*       -1.006423801E+03               0
GRID*               2887               06.9715119242E+001.4098082529E+01+
*       -1.004647543E+03               0
GRID*               2888               01.9288345214E+011.4930485865E+01+
*       -1.002866581E+03               0
GRID*               2889               03.1515603943E+011.5450397875E+01+
*       -1.001081101E+03               0
GRID*               2890               04.3602841382E+011.5831107461E+01+
*       -9.992897923E+02               0
GRID*               2891               05.5591962995E+011.5634642022E+01+
*       -9.974919026E+02               0
GRID*               2892               0-5.124243033E+001.2846366389E+01+
*       -9.961252890E+02               0
GRID*               2893               07.2092980907E+001.4066141203E+01+
*       -9.943221315E+02               0
GRID*               2894               01.9479630109E+011.4893101958E+01+
*       -9.925142647E+02               0
GRID*               2895               03.1661404654E+011.5413180261E+01+
*       -9.907016598E+02               0
GRID*               2896               04.3704802166E+011.5792547069E+01+
*       -9.888832002E+02               0
GRID*               2897               05.5651521917E+011.5586455963E+01+
*       -9.870580652E+02               0
GRID*               2898               0-4.838658187E+001.2816241669E+01+
*       -9.858267779E+02               0
GRID*               2899               07.4471076141E+001.4034156523E+01+
*       -9.839967223E+02               0
GRID*               2900               01.9670960037E+011.4855305717E+01+
*       -9.821619590E+02               0
GRID*               2901               03.1807249863E+011.5375963203E+01+
*       -9.803222207E+02               0
GRID*               2902               04.3806803867E+011.5753983185E+01+
*       -9.784766097E+02               0
GRID*               2903               05.5711102392E+011.5538338228E+01+
*       -9.766242289E+02               0
GRID*               2904               0-4.553071017E+001.2786154177E+01+
*       -9.755282674E+02               0
GRID*               2905               07.6849406414E+001.4002128953E+01+
*       -9.736713149E+02               0
GRID*               2906               01.9862334492E+011.4817123177E+01+
*       -9.718096632E+02               0
GRID*               2907               03.1953139602E+011.5338746710E+01+
*       -9.699427836E+02               0
GRID*               2908               04.3908846427E+011.5715415776E+01+
*       -9.680700208E+02               0
GRID*               2909               05.5770704354E+011.5490295225E+01+
*       -9.661903938E+02               0
GRID*               2910               0-4.267482009E+001.2756107991E+01+
*       -9.652297575E+02               0
GRID*               2911               07.9227973106E+001.3970058923E+01+
*       -9.633459094E+02               0
GRID*               2912               02.0053752991E+011.4778579534E+01+
*       -9.614573767E+02               0
GRID*               2913               03.2099073886E+011.5301530786E+01+
*       -9.595633486E+02               0
GRID*               2914               04.4010929775E+011.5676844801E+01+
*       -9.576634335E+02               0
GRID*               2915               05.5830327732E+011.5442333310E+01+
*       -9.557565598E+02               0
GRID*               2916               0-3.981891730E+001.2726107692E+01+
*       -9.549312481E+02               0
GRID*               2917               08.1606777545E+001.3937946838E+01+
*       -9.530205059E+02               0
GRID*               2918               02.0245215076E+011.4739699179E+01+
*       -9.511050990E+02               0
GRID*               2919               03.2245052719E+011.5264315439E+01+
*       -9.491839156E+02               0
GRID*               2920               04.4113053835E+011.5638270208E+01+
*       -9.472568478E+02               0
GRID*               2921               05.5889972448E+011.5394458787E+01+
*       -9.453227268E+02               0
GRID*               2922               0-3.696300836E+001.2696158435E+01+
*       -9.446327392E+02               0
GRID*               2923               08.3985821021E+001.3905793098E+01+
*       -9.426951042E+02               0
GRID*               2924               02.0436720318E+011.4700505723E+01+
*       -9.407528296E+02               0
GRID*               2925               03.2391076102E+011.5227100670E+01+
*       -9.388044846E+02               0
GRID*               2926               04.4215218525E+011.5599691940E+01+
*       -9.368502637E+02               0
GRID*               2927               05.5949638424E+011.5346677911E+01+
*       -9.348888950E+02               0
GRID*               2928               0-3.410698466E+001.2666304082E+01+
*       -9.343342301E+02               0
GRID*               2929               08.6365104783E+001.3873598107E+01+
*       -9.323697043E+02               0
GRID*               2930               02.0628268311E+011.4661022027E+01+
*       -9.304005680E+02               0
GRID*               2931               03.2537144025E+011.5189886485E+01+
*       -9.284250556E+02               0
GRID*               2932               04.4317423756E+011.5561109931E+01+
*       -9.264436812E+02               0
GRID*               2933               05.6009325581E+011.5298996893E+01+
*       -9.244550642E+02               0
GRID*               2934               0-3.125112301E+001.2636874209E+01+
*       -9.240357189E+02               0
GRID*               2935               08.8744630039E+001.3841362288E+01+
*       -9.220443064E+02               0
GRID*               2936               02.0819858673E+011.4621270227E+01+
*       -9.200483138E+02               0
GRID*               2937               03.2683256476E+011.5152672886E+01+
*       -9.180456286E+02               0
GRID*               2938               04.4419669440E+011.5522524104E+01+
*       -9.160371002E+02               0
GRID*               2939               05.6069033835E+011.5251421897E+01+
*       -9.140212344E+02               0
GRID*               2940               0-2.839559685E+001.2607779612E+01+
*       -9.137372069E+02               0
GRID*               2941               09.1124397938E+001.3809086092E+01+
*       -9.117189103E+02               0
GRID*               2942               02.1011491047E+011.4581271756E+01+
*       -9.096960665E+02               0
GRID*               2943               03.2829413437E+011.5115459874E+01+
*       -9.076662037E+02               0
GRID*               2944               04.4521955480E+011.5483934376E+01+
*       -9.056305209E+02               0
GRID*               2945               05.6128763101E+011.5203959049E+01+
*       -9.035874057E+02               0
GRID*               2946               0-2.554020541E+001.2578851811E+01+
*       -9.034386950E+02               0
GRID*               2947               09.3504409563E+001.3776770015E+01+
*       -9.013935160E+02               0
GRID*               2948               02.1203165096E+011.4541047368E+01+
*       -8.993438258E+02               0
GRID*               2949               03.2975614884E+011.5078247451E+01+
*       -8.972867807E+02               0
GRID*               2950               04.4624281779E+011.5445340655E+01+
*       -8.952239431E+02               0
GRID*               2951               05.6188513294E+011.5156614436E+01+
*       -8.931535779E+02               0
GRID*               2952               0-2.268478975E+001.2549957580E+01+
*       -8.931401840E+02               0
GRID*               2953               09.5884665875E+001.3744414603E+01+
*       -8.910681236E+02               0
GRID*               2954               02.1394880494E+011.4500617162E+01+
*       -8.889915911E+02               0
GRID*               2955               03.3121860783E+011.5041035616E+01+
*       -8.869073597E+02               0
GRID*               2956               04.4726648227E+011.5406742840E+01+
*       -8.848173668E+02               0
GRID*               2957               05.6248284320E+011.5109394104E+01+
*       -8.827197511E+02               0
GRID*               2958               0-1.982922414E+001.2520991606E+01+
*       -8.828416744E+02               0
GRID*               2959               09.8265167606E+001.3712020466E+01+
*       -8.807427330E+02               0
GRID*               2960               02.1586636917E+011.4460000594E+01+
*       -8.786393621E+02               0
GRID*               2961               03.3268151076E+011.5003824369E+01+
*       -8.765279406E+02               0
GRID*               2962               04.4829054695E+011.5368140817E+01+
*       -8.744107921E+02               0
GRID*               2963               05.6308076072E+011.5062304069E+01+
*       -8.722859253E+02               0
GRID*               2964               0-1.697340966E+001.2491870919E+01+
*       -8.725431668E+02               0
GRID*               2965               01.0064591506E+011.3679588290E+01+
*       -8.704173443E+02               0
GRID*               2966               02.1778434017E+011.4419216505E+01+
*       -8.682871383E+02               0
GRID*               2967               03.3414485658E+011.4966613705E+01+
*       -8.661485235E+02               0
GRID*               2968               04.4931501018E+011.5329534467E+01+
*       -8.640042190E+02               0
GRID*               2969               05.6367888427E+011.5015350310E+01+
*       -8.618521004E+02               0
GRID*               2970               0-1.411726883E+001.2462530624E+01+
*       -8.622446615E+02               0
GRID*               2971               01.0302690793E+011.3647118843E+01+
*       -8.600919574E+02               0
GRID*               2972               02.1970271398E+011.4378283130E+01+
*       -8.579349194E+02               0
GRID*               2973               03.3560864368E+011.4929403619E+01+
*       -8.557691084E+02               0
GRID*               2974               04.5033986992E+011.5290923655E+01+
*       -8.535976474E+02               0
GRID*               2975               05.6427721242E+011.4968538774E+01+
*       -8.514182764E+02               0
GRID*               2976               0-1.126074220E+001.2432920582E+01+
*       -8.519461587E+02               0
GRID*               2977               01.0540814493E+011.3614612990E+01+
*       -8.497665722E+02               0
GRID*               2978               02.2162148601E+011.4337218119E+01+
*       -8.475827050E+02               0
GRID*               2979               03.3707286987E+011.4892194101E+01+
*       -8.453896952E+02               0
GRID*               2980               04.5136512382E+011.5252308239E+01+
*       -8.431910773E+02               0
GRID*               2981               05.6487574363E+011.4921875379E+01+
*       -8.409844533E+02               0
GRID*               2982               0-8.403786045E-011.2403002810E+01+
*       -8.416476588E+02               0
GRID*               2983               01.0778962342E+011.3582071698E+01+
*       -8.394411888E+02               0
GRID*               2984               02.2354065106E+011.4296038554E+01+
*       -8.372304947E+02               0
GRID*               2985               03.3853753258E+011.4854985141E+01+
*       -8.350102838E+02               0
GRID*               2986               04.5239076940E+011.5213688064E+01+
*       -8.327845087E+02               0
GRID*               2987               05.6547447635E+011.4875366012E+01+
*       -8.305506310E+02               0
GRID*               2988               0-5.546370985E-011.2372749425E+01+
*       -8.313491617E+02               0
GRID*               2989               01.1017133910E+011.3549496049E+01+
*       -8.291158072E+02               0
GRID*               2990               02.2546020353E+011.4254760962E+01+
*       -8.268782881E+02               0
GRID*               2991               03.4000262927E+011.4817776726E+01+
*       -8.246308744E+02               0
GRID*               2992               04.5341680438E+011.5175062967E+01+
*       -8.223779416E+02               0
GRID*               2993               05.6607340916E+011.4829016531E+01+
*       -8.201168096E+02               0
GRID*               2994               0-2.688483708E-011.2342140997E+01+
*       -8.210506675E+02               0
GRID*               2995               01.1255328578E+011.3516887256E+01+
*       -8.187904273E+02               0
GRID*               2996               02.2738013815E+011.4213401335E+01+
*       -8.165260849E+02               0
GRID*               2997               03.4146815793E+011.4780568847E+01+
*       -8.142514668E+02               0
GRID*               2998               04.5444322692E+011.5136432771E+01+
*       -8.119713759E+02               0
GRID*               2999               05.6667254090E+011.4782832766E+01+
*       -8.096829891E+02               0
GRID*               3000               01.6987034650E-021.2311165213E+01+
*       -8.107521764E+02               0
GRID*               3001               01.1493545787E+011.3484246688E+01+
*       -8.084650490E+02               0
GRID*               3002               02.2930045145E+011.4171975149E+01+
*       -8.061738848E+02               0
GRID*               3003               03.4293411777E+011.4743361499E+01+
*       -8.038720612E+02               0
GRID*               3004               04.5547003590E+011.5097797293E+01+
*       -8.015648118E+02               0
GRID*               3005               05.6727187073E+011.4736820521E+01+
*       -7.992491693E+02               0
GRID*               3006               03.0287007194E-011.2279816150E+01+
*       -8.004536882E+02               0
GRID*               3007               01.1731785809E+011.3451575959E+01+
*       -7.981396724E+02               0
GRID*               3008               02.3122114351E+011.4130497384E+01+
*       -7.958216873E+02               0
GRID*               3009               03.4440050951E+011.4706154680E+01+
*       -7.934926573E+02               0
GRID*               3010               04.5649723089E+011.5059156337E+01+
*       -7.911582491E+02               0
GRID*               3011               05.6787139808E+011.4690985571E+01+
*       -7.888153503E+02               0
GRID*               3012               05.8880350316E-011.2248093446E+01+
*       -7.901552031E+02               0
GRID*               3013               01.1970049509E+011.3418876913E+01+
*       -7.878142975E+02               0
GRID*               3014               02.3314221652E+011.4088982537E+01+
*       -7.854694923E+02               0
GRID*               3015               03.4586733464E+011.4668948393E+01+
*       -7.831132554E+02               0
GRID*               3016               04.5752481181E+011.5020509696E+01+
*       -7.807516879E+02               0
GRID*               3017               05.6847112249E+011.4645333672E+01+
*       -7.783815321E+02               0
GRID*               3018               08.7478763388E-011.2216001242E+01+
*       -7.798567211E+02               0
GRID*               3019               01.2208337348E+011.3386151570E+01+
*       -7.774889243E+02               0
GRID*               3020               02.3506367198E+011.4047444621E+01+
*       -7.751172994E+02               0
GRID*               3021               03.4733459451E+011.4631742639E+01+
*       -7.727338552E+02               0
GRID*               3022               04.5855277852E+011.4981857149E+01+
*       -7.703451281E+02               0
GRID*               3023               05.6907104350E+011.4599870552E+01+
*       -7.679477147E+02               0
GRID*               3024               01.1608219059E+001.2183547800E+01+
*       -7.695582421E+02               0
GRID*               3025               01.2446649568E+011.3353402156E+01+
*       -7.671635527E+02               0
GRID*               3026               02.3698551062E+011.4005897177E+01+
*       -7.647651083E+02               0
GRID*               3027               03.4880229003E+011.4594537416E+01+
*       -7.623544570E+02               0
GRID*               3028               04.5958113067E+011.4943198461E+01+
*       -7.599385698E+02               0
GRID*               3029               05.6967116055E+011.4554601920E+01+
*       -7.575138980E+02               0
GRID*               3030               01.4469051584E+001.2150745123E+01+
*       -7.592597660E+02               0
GRID*               3031               01.2684986269E+011.3320631132E+01+
*       -7.568381828E+02               0
GRID*               3032               02.3890773248E+011.3964353290E+01+
*       -7.544129188E+02               0
GRID*               3033               03.5027042162E+011.4557332720E+01+
*       -7.519750606E+02               0
GRID*               3034               04.6060986765E+011.4904533380E+01+
*       -7.495320129E+02               0
GRID*               3035               05.7027147295E+011.4509533464E+01+
*       -7.470800820E+02               0
GRID*               3036               01.7330357475E+001.2117608647E+01+
*       -7.489612928E+02               0
GRID*               3037               01.2923347448E+011.3287841214E+01+
*       -7.465128145E+02               0
GRID*               3038               02.4083033710E+011.3922825598E+01+
*       -7.440607305E+02               0
GRID*               3039               03.5173898932E+011.4520128547E+01+
*       -7.415956660E+02               0
GRID*               3040               04.6163898857E+011.4865861640E+01+
*       -7.391254575E+02               0
GRID*               3041               05.7087197991E+011.4464670850E+01+
*       -7.366462667E+02               0
GRID*               3042               02.0192116076E+001.2084157026E+01+
*       -7.386628223E+02               0
GRID*               3043               01.3161733032E+011.3255035402E+01+
*       -7.361874478E+02               0
GRID*               3044               02.4275332371E+011.3881326306E+01+
*       -7.337085432E+02               0
GRID*               3045               03.5320799282E+011.4482924888E+01+
*       -7.312162732E+02               0
GRID*               3046               04.6266849237E+011.4827182956E+01+
*       -7.287189035E+02               0
GRID*               3047               05.7147268052E+011.4420019724E+01+
*       -7.262124521E+02               0
GRID*               3048               02.3054302855E+001.2050411991E+01+
*       -7.283643544E+02               0
GRID*               3049               01.3400142890E+011.3222217005E+01+
*       -7.258620827E+02               0
GRID*               3050               02.4467669132E+011.3839867195E+01+
*       -7.233563566E+02               0
GRID*               3051               03.5467743161E+011.4445721735E+01+
*       -7.208368822E+02               0
GRID*               3052               04.6369837780E+011.4788497025E+01+
*       -7.183123510E+02               0
GRID*               3053               05.7207357381E+011.4375585717E+01+
*       -7.157786382E+02               0
GRID*               3054               02.5916889579E+001.2016398275E+01+
*       -7.180658890E+02               0
GRID*               3055               01.3638576840E+011.3189389666E+01+
*       -7.155367192E+02               0
GRID*               3056               02.4660043885E+011.3798459635E+01+
*       -7.130041705E+02               0
GRID*               3057               03.5614730498E+011.4408519077E+01+
*       -7.104574931E+02               0
GRID*               3058               04.6472864351E+011.4749803528E+01+
*       -7.079057998E+02               0
GRID*               3059               05.7267465875E+011.4331374435E+01+
*       -7.053448249E+02               0
GRID*               3060               02.8779844360E+001.1982143625E+01+
*       -7.077674259E+02               0
GRID*               3061               01.3877034659E+011.3156557394E+01+
*       -7.052113571E+02               0
GRID*               3062               02.4852456512E+011.3757114598E+01+
*       -7.026519846E+02               0
GRID*               3063               03.5761761211E+011.4371316903E+01+
*       -7.000781057E+02               0
GRID*               3064               04.6575928806E+011.4711102123E+01+
*       -6.974992501E+02               0
GRID*               3065               05.7327593428E+011.4287391472E+01+
*       -6.949110123E+02               0
GRID*               3066               03.1643131586E+001.1947678871E+01+
*       -6.974689648E+02               0
GRID*               3067               01.4115516077E+011.3123724593E+01+
*       -6.948859965E+02               0
GRID*               3068               02.5044906896E+011.3715842662E+01+
*       -6.922997987E+02               0
GRID*               3069               03.5908835209E+011.4334115202E+01+
*       -6.896987201E+02               0
GRID*               3070               04.6679030994E+011.4672392448E+01+
*       -6.870927017E+02               0
GRID*               3071               05.7387739930E+011.4243642402E+01+
*       -6.844772002E+02               0
GRID*               3072               03.4506711759E+001.1913038091E+01+
*       -6.871705057E+02               0
GRID*               3073               01.4354020781E+011.3090896096E+01+
*       -6.845606374E+02               0
GRID*               3074               02.5237394918E+011.3674654027E+01+
*       -6.819476125E+02               0
GRID*               3075               03.6055952393E+011.4296913958E+01+
*       -6.793193362E+02               0
GRID*               3076               04.6782170758E+011.4633674118E+01+
*       -6.766861547E+02               0
GRID*               3077               05.7447905267E+011.4200132782E+01+
*       -6.740433888E+02               0
GRID*               3078               03.7370541206E+001.1878258853E+01+
*       -6.768720482E+02               0
GRID*               3079               01.4592548413E+011.3058077201E+01+
*       -6.742352797E+02               0
GRID*               3080               02.5429920460E+011.3633558525E+01+
*       -6.715954258E+02               0
GRID*               3081               03.6203112660E+011.4259713160E+01+
*       -6.689399541E+02               0
GRID*               3082               04.6885347940E+011.4594946726E+01+
*       -6.662796091E+02               0
GRID*               3083               05.7508089328E+011.4156868153E+01+
*       -6.636095779E+02               0
GRID*               3084               04.0234571678E+001.1843382565E+01+
*       -6.665735921E+02               0
GRID*               3085               01.4831098570E+011.3025273711E+01+
*       -6.639099233E+02               0
GRID*               3086               02.5622483413E+011.3592565626E+01+
*       -6.612432384E+02               0
GRID*               3087               03.6350315911E+011.4222512791E+01+
*       -6.585605737E+02               0
GRID*               3088               04.6988562388E+011.4556209838E+01+
*       -6.558730649E+02               0
GRID*               3089               05.7568292009E+011.4113854042E+01+
*       -6.531757676E+02               0
GRID*               3090               04.3098749855E+001.1808454941E+01+
*       -6.562751372E+02               0
GRID*               3091               01.5069670817E+011.2992491976E+01+
*       -6.535845682E+02               0
GRID*               3092               02.5815083704E+011.3551684452E+01+
*       -6.508910501E+02               0
GRID*               3093               03.6497562090E+011.4185312838E+01+
*       -6.481811950E+02               0
GRID*               3094               04.7091813997E+011.4517462995E+01+
*       -6.454665220E+02               0
GRID*               3095               05.7628513243E+011.4071095958E+01+
*       -6.427419578E+02               0
GRID*               3096               04.5963016894E+001.1773526624E+01+
*       -6.459766831E+02               0
GRID*               3097               01.5308264744E+011.2959738950E+01+
*       -6.432592143E+02               0
GRID*               3098               02.6007721382E+011.3510923792E+01+
*       -6.405388607E+02               0
GRID*               3099               03.6644851273E+011.4148113292E+01+
*       -6.378018181E+02               0
GRID*               3100               04.7195118679E+011.4478695718E+01+
*       -6.350599784E+02               0
GRID*               3101               05.7688753032E+011.4028599396E+01+
*       -6.323081485E+02               0
GRID*               3102               04.8827308185E+001.1738653987E+01+
*       -6.356782295E+02               0
GRID*               3103               01.5546880093E+011.2927022245E+01+
*       -6.329338617E+02               0
GRID*               3104               02.6200396763E+011.3470292119E+01+
*       -6.301866699E+02               0
GRID*               3105               03.6792183787E+011.4110914151E+01+
*       -6.274224428E+02               0
GRID*               3106               04.7298574343E+011.4438980653E+01+
*       -6.246534279E+02               0
GRID*               3107               05.7749011481E+011.3986369837E+01+
*       -6.218743398E+02               0
GRID*               3108               05.1691553335E+001.1703900178E+01+
*       -6.253797761E+02               0
GRID*               3109               01.5785516919E+011.2894350206E+01+
*       -6.226085102E+02               0
GRID*               3110               02.6393110565E+011.3429797612E+01+
*       -6.198344778E+02               0
GRID*               3111               03.6939560283E+011.4073715427E+01+
*       -6.170430693E+02               0
GRID*               3112               04.7402051171E+011.4397802765E+01+
*       -6.142468913E+02               0
GRID*               3113               05.7809288782E+011.3944412748E+01+
*       -6.114405315E+02               0
GRID*               3114               05.4555676434E+001.1669336474E+01+
*       -6.150813224E+02               0
GRID*               3115               01.6024175770E+011.2861731986E+01+
*       -6.122831599E+02               0
GRID*               3116               02.6585863980E+011.3389448171E+01+
*       -6.094822840E+02               0
GRID*               3117               03.7086981699E+011.4036517141E+01+
*       -6.066636976E+02               0
GRID*               3118               04.7505550921E+011.4355286669E+01+
*       -6.038403675E+02               0
GRID*               3119               05.7869585164E+011.3902733581E+01+
*       -6.010067238E+02               0
GRID*               3120               05.7419597832E+001.1635044036E+01+
*       -6.047828681E+02               0
GRID*               3121               01.6262857899E+011.2829177633E+01+
*       -6.019578108E+02               0
GRID*               3122               02.6778658631E+011.3349251427E+01+
*       -5.991300885E+02               0
GRID*               3123               03.7234449110E+011.3999319317E+01+
*       -5.962843277E+02               0
GRID*               3124               04.7609075294E+011.4311551738E+01+
*       -5.934338557E+02               0
GRID*               3125               05.7929900814E+011.3861337781E+01+
*       -5.905729165E+02               0
GRID*               3126               06.0283242551E+001.1601116271E+01+
*       -5.944844127E+02               0
GRID*               3127               01.6501565506E+011.2796698185E+01+
*       -5.916324628E+02               0
GRID*               3128               02.6971496344E+011.3309214741E+01+
*       -5.887778912E+02               0
GRID*               3129               03.7381963440E+011.3962121975E+01+
*       -5.859049595E+02               0
GRID*               3130               04.7712625738E+011.4266712321E+01+
*       -5.830273549E+02               0
GRID*               3131               05.7990235792E+011.3820230779E+01+
*       -5.801391098E+02               0
GRID*               3132               06.3146563355E+001.1567662051E+01+
*       -5.841859559E+02               0
GRID*               3133               01.6740301369E+011.2764305727E+01+
*       -5.813071160E+02               0
GRID*               3134               02.7164378477E+011.3269345169E+01+
*       -5.784256919E+02               0
GRID*               3135               03.7529525049E+011.3924925110E+01+
*       -5.755255931E+02               0
GRID*               3136               04.7816203259E+011.4220877964E+01+
*       -5.726208642E+02               0
GRID*               3137               05.8050589963E+011.3779417996E+01+
*       -5.697053035E+02               0
GRID*               3138               06.6009509202E+001.1534809517E+01+
*       -5.738874971E+02               0
GRID*               3139               01.6979065813E+011.2732013236E+01+
*       -5.709817704E+02               0
GRID*               3140               02.7357304712E+011.3229649388E+01+
*       -5.680734904E+02               0
GRID*               3141               03.7677133375E+011.3887728680E+01+
*       -5.651462285E+02               0
GRID*               3142               04.7919808355E+011.4174153616E+01+
*       -5.622143828E+02               0
GRID*               3143               05.8110963001E+011.3738904844E+01+
*       -5.592714976E+02               0
GRID*               3144               06.8871765246E+001.1502709215E+01+
*       -5.635890351E+02               0
GRID*               3145               01.7217852855E+011.2699834354E+01+
*       -5.606564256E+02               0
GRID*               3146               02.7550272774E+011.3190133669E+01+
*       -5.577212866E+02               0
GRID*               3147               03.7824787109E+011.3850532613E+01+
*       -5.547668656E+02               0
GRID*               3148               04.8023441168E+011.4126639822E+01+
*       -5.518079097E+02               0
GRID*               3149               05.8171354473E+011.3698696721E+01+
*       -5.488376921E+02               0
GRID*               3150               07.1733047431E+001.1471543740E+01+
*       -5.532905685E+02               0
GRID*               3151               01.7456657769E+011.2667784114E+01+
*       -5.503310815E+02               0
GRID*               3152               02.7743280606E+011.3150804030E+01+
*       -5.473690801E+02               0
GRID*               3153               03.7972484941E+011.3813336835E+01+
*       -5.443875043E+02               0
GRID*               3154               04.8127101784E+011.4078432893E+01+
*       -5.414014441E+02               0
GRID*               3155               05.8231763940E+011.3658799014E+01+
*       -5.384038870E+02               0
GRID*               3156               07.4593069096E+001.1441537669E+01+
*       -5.429920959E+02               0
GRID*               3157               01.7695477318E+011.2635879084E+01+
*       -5.400057378E+02               0
GRID*               3158               02.7936326756E+011.3111666272E+01+
*       -5.370168709E+02               0
GRID*               3159               03.8120225808E+011.3776141281E+01+
*       -5.340081446E+02               0
GRID*               3160               04.8230790363E+011.4029625069E+01+
*       -5.309949854E+02               0
GRID*               3161               05.8292191014E+011.3619217101E+01+
*       -5.279700823E+02               0
GRID*               3162               07.7451488003E+001.1412971456E+01+
*       -5.326936158E+02               0
GRID*               3163               01.7934308890E+011.2604137437E+01+
*       -5.296803945E+02               0
GRID*               3164               02.8129410223E+011.3072725981E+01+
*       -5.266646586E+02               0
GRID*               3165               03.8268008904E+011.3738945891E+01+
*       -5.236287865E+02               0
GRID*               3166               04.8334507170E+011.3980304676E+01+
*       -5.205885327E+02               0
GRID*               3167               05.8352635374E+011.3579956346E+01+
*       -5.175362778E+02               0
GRID*               3168               08.0310976172E+001.1374921105E+01+
*       -5.223951658E+02               0
GRID*               3169               01.8173150162E+011.2572579075E+01+
*       -5.193550513E+02               0
GRID*               3170               02.8322530330E+011.3033988536E+01+
*       -5.163124433E+02               0
GRID*               3171               03.8415833629E+011.3701750615E+01+
*       -5.132494298E+02               0
GRID*               3172               04.8438252560E+011.3930556276E+01+
*       -5.101820853E+02               0
GRID*               3173               05.8413096754E+011.3541022105E+01+
*       -5.071024737E+02               0
GRID*               3174               08.3178447348E+001.1332827331E+01+
*       -5.120967472E+02               0
GRID*               3175               01.8411998902E+011.2541225782E+01+
*       -5.090297081E+02               0
GRID*               3176               02.8515686612E+011.2995459108E+01+
*       -5.059602247E+02               0
GRID*               3177               03.8563699538E+011.3664555405E+01+
*       -5.028700747E+02               0
GRID*               3178               04.8542026945E+011.3880460814E+01+
*       -4.997756425E+02               0
GRID*               3179               05.8473574933E+011.3502419723E+01+
*       -4.966686698E+02               0
GRID*               3180               08.6035259186E+001.1300000306E+01+
*       -5.017982763E+02               0
GRID*               3181               01.8650953882E+011.2510031521E+01+
*       -4.987043688E+02               0
GRID*               3182               02.8708878743E+011.2957142668E+01+
*       -4.956080027E+02               0
GRID*               3183               03.8711606287E+011.3627360212E+01+
*       -4.924907210E+02               0
GRID*               3184               04.8645830770E+011.3830095763E+01+
*       -4.893692038E+02               0
GRID*               3185               05.8534069720E+011.3464154536E+01+
*       -4.862348662E+02               0
GRID*               3186               08.8873948741E+001.1281597642E+01+
*       -4.914997201E+02               0
GRID*               3187               01.8890253022E+011.2477267835E+01+
*       -4.883790756E+02               0
GRID*               3188               02.8902106482E+011.2919043995E+01+
*       -4.852557771E+02               0
GRID*               3189               03.8859553593E+011.3590164990E+01+
*       -4.821113688E+02               0
GRID*               3190               04.8749664489E+011.3779535256E+01+
*       -4.789627685E+02               0
GRID*               3191               05.8594580943E+011.3426231873E+01+
*       -4.758010628E+02               0
GRID*               3192               09.1692244243E+001.1279034829E+01+
*       -4.812010692E+02               0
GRID*               3193               01.9129594228E+011.2442370192E+01+
*       -4.780538315E+02               0
GRID*               3194               02.9095369638E+011.2881167685E+01+
*       -4.749035479E+02               0
GRID*               3195               03.9007541212E+011.3552969691E+01+
*       -4.717320181E+02               0
GRID*               3196               04.8853528547E+011.3728850221E+01+
*       -4.685563360E+02               0
GRID*               3197               05.8655108442E+011.3388657053E+01+
*       -4.653672596E+02               0
GRID*               3198               09.4490929772E+001.1291505161E+01+
*       -4.709023279E+02               0
GRID*               3199               01.9368976294E+011.2405579824E+01+
*       -4.677286311E+02               0
GRID*               3200               02.9288668049E+011.2843518157E+01+
*       -4.645513149E+02               0
GRID*               3201               03.9155568920E+011.3515774262E+01+
*       -4.613526687E+02               0
GRID*               3202               04.8957423375E+011.3678108506E+01+
*       -4.581499058E+02               0
GRID*               3203               05.8715652062E+011.3351435389E+01+
*       -4.549334566E+02               0
GRID*               3204               09.7273338021E+001.1316319054E+01+
*       -4.606035121E+02               0
GRID*               3205               01.9608398086E+011.2367123502E+01+
*       -4.574034690E+02               0
GRID*               3206               02.9482001567E+011.2806099668E+01+
*       -4.541990781E+02               0
GRID*               3207               03.9303636503E+011.3478578651E+01+
*       -4.509733208E+02               0
GRID*               3208               04.9061349379E+011.3627375000E+01+
*       -4.477434772E+02               0
GRID*               3209               05.8776211651E+011.3314572184E+01+
*       -4.444996538E+02               0
GRID*               3210               01.0004599156E+011.1348392843E+01+
*       -4.503046526E+02               0
GRID*               3211               01.9847858538E+011.2327214395E+01+
*       -4.470783405E+02               0
GRID*               3212               02.9675370052E+011.2768916322E+01+
*       -4.438468372E+02               0
GRID*               3213               03.9451743748E+011.3441382798E+01+
*       -4.405939742E+02               0
GRID*               3214               04.9165306943E+011.3576711747E+01+
*       -4.373370499E+02               0
GRID*               3215               05.8836787060E+011.3278072737E+01+
*       -4.340658512E+02               0
GRID*               3216               01.0282097709E+011.1378428988E+01+
*       -4.400058058E+02               0
GRID*               3217               02.0087356642E+011.2286052872E+01+
*       -4.367532409E+02               0
GRID*               3218               02.9868773367E+011.2731972081E+01+
*       -4.334945922E+02               0
GRID*               3219               03.9599890444E+011.3404186641E+01+
*       -4.302146290E+02               0
GRID*               3220               04.9269296420E+011.3526178059E+01+
*       -4.269306232E+02               0
GRID*               3221               05.8897378136E+011.3241942339E+01+
*       -4.236320487E+02               0
GRID*               3222               01.0562271593E+011.1387754586E+01+
*       -4.297070854E+02               0
GRID*               3223               02.0326891440E+011.2243827260E+01+
*       -4.264281659E+02               0
GRID*               3224               03.0062211375E+011.2695270780E+01+
*       -4.231423430E+02               0
GRID*               3225               03.9748076376E+011.3366990112E+01+
*       -4.198352851E+02               0
GRID*               3226               04.9373318140E+011.3475830625E+01+
*       -4.165241968E+02               0
GRID*               3227               05.8957984729E+011.3206186273E+01+
*       -4.131982464E+02               0
GRID*               3228               01.0848603199E+011.1355850544E+01+
*       -4.194086981E+02               0
GRID*               3229               02.0566462026E+011.2200714539E+01+
*       -4.161031114E+02               0
GRID*               3230               03.0255683937E+011.2658816140E+01+
*       -4.127900895E+02               0
GRID*               3231               03.9896301327E+011.3329793138E+01+
*       -4.094559425E+02               0
GRID*               3232               04.9477372404E+011.3425723610E+01+
*       -4.061177702E+02               0
GRID*               3233               05.9018606686E+011.3170809820E+01+
*       -4.027644441E+02               0
GRID*               3234               01.1137065644E+011.1305540725E+01+
*       -4.091105515E+02               0
GRID*               3235               02.0806067538E+011.2156881009E+01+
*       -4.057780737E+02               0
GRID*               3236               03.0449190915E+011.2622611781E+01+
*       -4.024378315E+02               0
GRID*               3237               04.0044565073E+011.3292595638E+01+
*       -3.990766013E+02               0
GRID*               3238               04.9581459487E+011.3375908756E+01+
*       -3.957113429E+02               0
GRID*               3239               05.9079243852E+011.3135818252E+01+
*       -3.923306419E+02               0
GRID*               3240               01.1426261567E+011.1248075134E+01+
*       -3.988124985E+02               0
GRID*               3241               02.1045707157E+011.2112482904E+01+
*       -3.954530491E+02               0
GRID*               3242               03.0642732166E+011.2586661236E+01+
*       -3.920855690E+02               0
GRID*               3243               04.0192867390E+011.3255397525E+01+
*       -3.886972613E+02               0
GRID*               3244               04.9685579640E+011.3326435478E+01+
*       -3.853049145E+02               0
GRID*               3245               05.9139896072E+011.3101216838E+01+
*       -3.818968398E+02               0
GRID*               3246               01.1715590844E+011.1189557926E+01+
*       -3.885144567E+02               0
GRID*               3247               02.1285380104E+011.2067666975E+01+
*       -3.851280343E+02               0
GRID*               3248               03.0836307546E+011.2550967971E+01+
*       -3.817333019E+02               0
GRID*               3249               04.0341208045E+011.3218198705E+01+
*       -3.783179226E+02               0
GRID*               3250               04.9789733089E+011.3277350953E+01+
*       -3.748984847E+02               0
GRID*               3251               05.9200563188E+011.3067010842E+01+
*       -3.714630377E+02               0
GRID*               3252               01.2004698660E+011.1133581831E+01+
*       -3.782163780E+02               0
GRID*               3253               02.1525085640E+011.2022571037E+01+
*       -3.748030260E+02               0
GRID*               3254               03.1029916907E+011.2515535397E+01+
*       -3.713810300E+02               0
GRID*               3255               04.0489586803E+011.3180999072E+01+
*       -3.679385851E+02               0
GRID*               3256               04.9893920038E+011.3228700214E+01+
*       -3.644920530E+02               0
GRID*               3257               05.9261245044E+011.3033205523E+01+
*       -3.610292357E+02               0
GRID*               3258               01.2293376232E+011.1082245954E+01+
*       -3.679182343E+02               0
GRID*               3259               02.1764823060E+011.1977324479E+01+
*       -3.644780214E+02               0
GRID*               3260               03.1223560101E+011.2480366891E+01+
*       -3.610287533E+02               0
GRID*               3261               04.0638003425E+011.3143798513E+01+
*       -3.575592488E+02               0
GRID*               3262               04.9998140667E+011.3180526229E+01+
*       -3.540856191E+02               0
GRID*               3263               05.9321941478E+011.2999806136E+01+
*       -3.505954336E+02               0
GRID*               3264               01.2581506199E+011.1036715460E+01+
*       -3.576200101E+02               0
GRID*               3265               02.2004591695E+011.1932048750E+01+
*       -3.541530177E+02               0
GRID*               3266               03.1417236975E+011.2445465813E+01+
*       -3.506764716E+02               0
GRID*               3267               04.0786457665E+011.3106596900E+01+
*       -3.471799138E+02               0
GRID*               3268               05.0102395135E+011.3132869989E+01+
*       -3.436791826E+02               0
GRID*               3269               05.9382652330E+011.2966817934E+01+
*       -3.401616316E+02               0
GRID*               3270               01.2869030946E+011.0997546064E+01+
*       -3.473216982E+02               0
GRID*               3271               02.2244390909E+011.1886857815E+01+
*       -3.438280121E+02               0
GRID*               3272               03.1610947374E+011.2410835529E+01+
*       -3.403241849E+02               0
GRID*               3273               04.0934949273E+011.3069394094E+01+
*       -3.368005799E+02               0
GRID*               3274               05.0206683582E+011.3085770583E+01+
*       -3.332727432E+02               0
GRID*               3275               05.9443377437E+011.2934246167E+01+
*       -3.297278295E+02               0
GRID*               3276               01.3155933473E+011.0964879821E+01+
*       -3.370232968E+02               0
GRID*               3277               02.2484220096E+011.1841858586E+01+
*       -3.335030023E+02               0
GRID*               3278               03.1804691143E+011.2376479431E+01+
*       -3.299718930E+02               0
GRID*               3279               04.1083477994E+011.3032189940E+01+
*       -3.264212472E+02               0
GRID*               3280               05.0311006127E+011.3039265279E+01+
*       -3.228663007E+02               0
GRID*               3281               05.9504116635E+011.2902096082E+01+
*       -3.192940274E+02               0
GRID*               3282               01.3442225538E+011.0938566194E+01+
*       -3.267248081E+02               0
GRID*               3283               02.2724078681E+011.1797151326E+01+
*       -3.231779859E+02               0
GRID*               3284               03.1998468120E+011.2342400962E+01+
*       -3.196195959E+02               0
GRID*               3285               04.1232043569E+011.2994984265E+01+
*       -3.160419156E+02               0
GRID*               3286               05.0415362872E+011.2993389598E+01+
*       -3.124598546E+02               0
GRID*               3287               05.9564869759E+011.2870372925E+01+
*       -3.088602252E+02               0
GRID*               3288               01.3727940322E+011.0918236748E+01+
*       -3.164262375E+02               0
GRID*               3289               02.2963966114E+011.1752830035E+01+
*       -3.128529608E+02               0
GRID*               3290               03.2192278145E+011.2308603644E+01+
*       -3.092672934E+02               0
GRID*               3291               04.1380645734E+011.2957776876E+01+
*       -3.056625851E+02               0
GRID*               3292               05.0519753899E+011.2948177382E+01+
*       -3.020534047E+02               0
GRID*               3293               05.9625636642E+011.2839081939E+01+
*       -2.984264229E+02               0
GRID*               3294               01.4013128157E+011.0903348154E+01+
*       -3.061275924E+02               0
GRID*               3295               02.3203881875E+011.1708982818E+01+
*       -3.025279249E+02               0
GRID*               3296               03.2386121053E+011.2275091100E+01+
*       -2.989149855E+02               0
GRID*               3297               04.1529284219E+011.2920567556E+01+
*       -2.952832557E+02               0
GRID*               3298               05.0624179275E+011.2903660870E+01+
*       -2.916469507E+02               0
GRID*               3299               05.9686417117E+011.2808228370E+01+
*       -2.879926205E+02               0
GRID*               3300               01.4297854719E+011.0893199639E+01+
*       -2.958288824E+02               0
GRID*               3301               02.3443825468E+011.1665692224E+01+
*       -2.922028764E+02               0
GRID*               3302               03.2579996678E+011.2241867091E+01+
*       -2.885626719E+02               0
GRID*               3303               04.1677958749E+011.2883356059E+01+
*       -2.849039273E+02               0
GRID*               3304               05.0728639052E+011.2859870765E+01+
*       -2.812404924E+02               0
GRID*               3305               05.9747211013E+011.2777817462E+01+
*       -2.775588180E+02               0
GRID*               3306               01.4582201767E+011.0886923718E+01+
*       -2.855301196E+02               0
GRID*               3307               02.3683796420E+011.1623035582E+01+
*       -2.818778134E+02               0
GRID*               3308               03.2773904851E+011.2208935550E+01+
*       -2.782103527E+02               0
GRID*               3309               04.1826669044E+011.2846142110E+01+
*       -2.745246000E+02               0
GRID*               3310               05.0833133266E+011.2816836297E+01+
*       -2.708340295E+02               0
GRID*               3311               05.9808018160E+011.2747854460E+01+
*       -2.671250153E+02               0
GRID*               3312               01.4866271464E+011.0883438968E+01+
*       -2.752313186E+02               0
GRID*               3313               02.3923794285E+011.1581085308E+01+
*       -2.715527343E+02               0
GRID*               3314               03.2967845402E+011.2176300612E+01+
*       -2.678580276E+02               0
GRID*               3315               04.1975414819E+011.2808925394E+01+
*       -2.641452738E+02               0
GRID*               3316               05.0937661939E+011.2774585290E+01+
*       -2.604275616E+02               0
GRID*               3317               05.9868838387E+011.2718344612E+01+
*       -2.566912124E+02               0
GRID*               3318               01.5150197239E+011.0881333155E+01+
*       -2.649324991E+02               0
GRID*               3319               02.4163818634E+011.1539909206E+01+
*       -2.612276375E+02               0
GRID*               3320               03.3161818158E+011.2143966664E+01+
*       -2.575056965E+02               0
GRID*               3321               04.2124195784E+011.2771705550E+01+
*       -2.537659485E+02               0
GRID*               3322               05.1042225080E+011.2733144224E+01+
*       -2.500210887E+02               0
GRID*               3323               05.9929671521E+011.2689293170E+01+
*       -2.462574093E+02               0
GRID*               3324               01.5434169103E+011.0878592101E+01+
*       -2.546336888E+02               0
GRID*               3325               02.4403869062E+011.1499570751E+01+
*       -2.509025215E+02               0
GRID*               3326               03.3355822946E+011.2111938384E+01+
*       -2.471533594E+02               0
GRID*               3327               04.2273011642E+011.2734482164E+01+
*       -2.433866242E+02               0
GRID*               3328               05.1146822687E+011.2692538297E+01+
*       -2.396146105E+02               0
GRID*               3329               05.9990517388E+011.2660705388E+01+
*       -2.358236061E+02               0
GRID*               3330               01.5718496609E+011.0871926476E+01+
*       -2.443349331E+02               0
GRID*               3331               02.4643945184E+011.1460129365E+01+
*       -2.405773849E+02               0
GRID*               3332               03.3549859591E+011.2080220794E+01+
*       -2.368010159E+02               0
GRID*               3333               04.2421862090E+011.2697254757E+01+
*       -2.330073009E+02               0
GRID*               3334               05.1251454745E+011.2652791485E+01+
*       -2.292081267E+02               0
GRID*               3335               06.0051375810E+011.2632586529E+01+
*       -2.253898026E+02               0
GRID*               3336               01.6003790296E+011.0854832878E+01+
*       -2.340363222E+02               0
GRID*               3337               02.4884046633E+011.1421640671E+01+
*       -2.302522265E+02               0
GRID*               3338               03.3743927917E+011.2048819315E+01+
*       -2.264486661E+02               0
GRID*               3339               04.2570746817E+011.2660022773E+01+
*       -2.226279784E+02               0
GRID*               3340               05.1356121220E+011.2613926602E+01+
*       -2.188016371E+02               0
GRID*               3341               06.0112246594E+011.2604941861E+01+
*       -2.149559988E+02               0
GRID*               3342               01.6289809870E+011.0826893205E+01+
*       -2.237378530E+02               0
GRID*               3343               02.5124173061E+011.1384156753E+01+
*       -2.199270450E+02               0
GRID*               3344               03.3938027735E+011.2017739831E+01+
*       -2.160963096E+02               0
GRID*               3345               04.2719665471E+011.2622785558E+01+
*       -2.122486569E+02               0
GRID*               3346               05.1460822014E+011.2575965354E+01+
*       -2.083951416E+02               0
GRID*               3347               06.0173129501E+011.2577776662E+01+
*       -2.045221948E+02               0
GRID*               3348               01.6575841772E+011.0798722378E+01+
*       -2.134393854E+02               0
GRID*               3349               02.5364324110E+011.1347726388E+01+
*       -2.096018393E+02               0
GRID*               3350               03.4132158786E+011.1986988749E+01+
*       -2.057439464E+02               0
GRID*               3351               04.2868617577E+011.2585542336E+01+
*       -2.018693363E+02               0
GRID*               3352               05.1565556899E+011.2538928404E+01+
*       -1.979886398E+02               0
GRID*               3353               06.0234024212E+011.2551096220E+01+
*       -1.940883904E+02               0
GRID*               3354               01.6861898711E+011.0770393947E+01+
*       -2.031409191E+02               0
GRID*               3355               02.5604499334E+011.1312395281E+01+
*       -1.992766083E+02               0
GRID*               3356               03.4326320633E+011.1956573071E+01+
*       -1.953915763E+02               0
GRID*               3357               04.3017602444E+011.2548292180E+01+
*       -1.914900165E+02               0
GRID*               3358               05.1670325462E+011.2502835417E+01+
*       -1.875821317E+02               0
GRID*               3359               06.0294930302E+011.2524905839E+01+
*       -1.836545857E+02               0
GRID*               3360               01.7147978247E+011.0741933262E+01+
*       -1.928424540E+02               0
GRID*               3361               02.5844698119E+011.1278206282E+01+
*       -1.889513510E+02               0
GRID*               3362               03.4520512610E+011.1926500481E+01+
*       -1.850391989E+02               0
GRID*               3363               04.3166619163E+011.2511033971E+01+
*       -1.811106976E+02               0
GRID*               3364               05.1775127119E+011.2467705125E+01+
*       -1.771756170E+02               0
GRID*               3365               06.0355847232E+011.2499210837E+01+
*       -1.732207807E+02               0
GRID*               3366               01.7434077258E+011.0713372084E+01+
*       -1.825439899E+02               0
GRID*               3367               02.6084919712E+011.1245199610E+01+
*       -1.786260665E+02               0
GRID*               3368               03.4714733899E+011.1896779448E+01+
*       -1.746868141E+02               0
GRID*               3369               04.3315666655E+011.2473766355E+01+
*       -1.707313795E+02               0
GRID*               3370               05.1879961076E+011.2433555370E+01+
*       -1.667690956E+02               0
GRID*               3371               06.0416774220E+011.2474016553E+01+
*       -1.627869753E+02               0
GRID*               3372               01.7720191840E+011.0684750444E+01+
*       -1.722455264E+02               0
GRID*               3373               02.6325163323E+011.1213413067E+01+
*       -1.683007538E+02               0
GRID*               3374               03.4908983577E+011.1867419354E+01+
*       -1.643344215E+02               0
GRID*               3375               04.3464743557E+011.2436487674E+01+
*       -1.603520621E+02               0
GRID*               3376               05.1984825975E+011.2400403165E+01+
*       -1.563625671E+02               0
GRID*               3377               06.0477709733E+011.2449328347E+01+
*       -1.523531694E+02               0
GRID*               3378               01.8006317122E+011.0656119172E+01+
*       -1.619470634E+02               0
GRID*               3379               02.6565428036E+011.1182882247E+01+
*       -1.579754121E+02               0
GRID*               3380               03.5103260231E+011.1838430584E+01+
*       -1.539820210E+02               0
GRID*               3381               04.3613847342E+011.2399195844E+01+
*       -1.499727454E+02               0
GRID*               3382               05.2089718119E+011.2368264747E+01+
*       -1.459560315E+02               0
GRID*               3383               06.0538647296E+011.2425151551E+01+
*       -1.419193631E+02               0
GRID*               3384               01.8292446736E+011.0627543342E+01+
*       -1.516486004E+02               0
GRID*               3385               02.6805712168E+011.1153640696E+01+
*       -1.476500405E+02               0
GRID*               3386               03.5297560903E+011.1809824587E+01+
*       -1.436296121E+02               0
GRID*               3387               04.3762972992E+011.2361888185E+01+
*       -1.395934294E+02               0
GRID*               3388               05.2194629644E+011.2337155605E+01+
*       -1.355494884E+02               0
GRID*               3389               06.0599571253E+011.2401491431E+01+
*       -1.314855561E+02               0
GRID*               3390               01.8578571703E+011.0599107074E+01+
*       -1.413501367E+02               0
GRID*               3391               02.7046012084E+011.1125720032E+01+
*       -1.373246382E+02               0
GRID*               3392               03.5491880446E+011.1781614001E+01+
*       -1.332771942E+02               0
GRID*               3393               04.3912129880E+011.2324457434E+01+
*       -1.292141143E+02               0
GRID*               3394               05.2299558114E+011.2307090516E+01+
*       -1.251429375E+02               0
GRID*               3395               06.0660490306E+011.2378353609E+01+
*       -1.210517485E+02               0
GRID*               3396               01.8864678354E+011.0570920362E+01+
*       -1.310516716E+02               0
GRID*               3397               02.7286320276E+011.1099149999E+01+
*       -1.269992040E+02               0
GRID*               3398               03.5686210426E+011.1753812768E+01+
*       -1.229247667E+02               0
GRID*               3399               04.4061310553E+011.2285179492E+01+
*       -1.188348184E+02               0
GRID*               3400               05.2404501811E+011.2278083640E+01+
*       -1.147363785E+02               0
GRID*               3401               06.0721408438E+011.2355743723E+01+
*       -1.106179401E+02               0
GRID*               3402               01.9151125011E+011.0541960213E+01+
*       -1.207532385E+02               0
GRID*               3403               02.7526622660E+011.1073958443E+01+
*       -1.166737369E+02               0
GRID*               3404               03.5880538357E+011.1726436329E+01+
*       -1.125723286E+02               0
GRID*               3405               04.4210462680E+011.2244140234E+01+
*       -1.084555422E+02               0
GRID*               3406               05.2509457770E+011.2250148570E+01+
*       -1.043298109E+02               0
GRID*               3407               06.0782325551E+011.2333667458E+01+
*       -1.001841308E+02               0
GRID*               3408               01.9437717765E+011.0509637912E+01+
*       -1.104548858E+02               0
GRID*               3409               02.7766895678E+011.1050171261E+01+
*       -1.063482353E+02               0
GRID*               3410               03.6074849558E+011.1699502096E+01+
*       -1.022198790E+02               0
GRID*               3411               04.4359591645E+011.2202105033E+01+
*       -9.807627701E+01               0
GRID*               3412               05.2614424093E+011.2223298404E+01+
*       -9.392323455E+01               0
GRID*               3413               06.0843241592E+011.2312130625E+01+
*       -8.975032050E+01               0
GRID*               3414               01.9724236342E+011.0475248525E+01+
*       -1.001565768E+02               0
GRID*               3415               02.8007111088E+011.1027812899E+01+
*       -9.602269767E+01               0
GRID*               3416               03.6269135096E+011.1673030480E+01+
*       -9.186741720E+01               0
GRID*               3417               04.4508706337E+011.2159691232E+01+
*       -8.769701608E+01               0
GRID*               3418               05.2719402525E+011.2197545829E+01+
*       -8.351664932E+01               0
GRID*               3419               06.0904157995E+011.2291139220E+01+
*       -7.931650930E+01               0
GRID*               3420               02.0010616156E+011.0439993359E+01+
*       -8.985828153E+01               0
GRID*               3421               02.8247268672E+011.1006909008E+01+
*       -8.569712360E+01               0
GRID*               3422               03.6463404127E+011.1647046252E+01+
*       -8.151494286E+01               0
GRID*               3423               04.4657822629E+011.2117400562E+01+
*       -7.731775431E+01               0
GRID*               3424               05.2824398600E+011.2172903223E+01+
*       -7.311005525E+01               0
GRID*               3425               06.0965077413E+011.2270699473E+01+
*       -6.888269723E+01               0
GRID*               3426               02.0296988593E+011.0404815184E+01+
*       -7.955998280E+01               0
GRID*               3427               02.8487419295E+011.0987488643E+01+
*       -7.537151417E+01               0
GRID*               3428               03.6657679344E+011.1621578459E+01+
*       -7.116245613E+01               0
GRID*               3429               04.4806958316E+011.2075643421E+01+
*       -6.693848762E+01               0
GRID*               3430               05.2929418580E+011.2149382704E+01+
*       -6.270345240E+01               0
GRID*               3431               06.1026002321E+011.2250817922E+01+
*       -5.844888430E+01               0
GRID*               3432               02.0583366198E+011.0370442937E+01+
*       -6.926166409E+01               0
GRID*               3433               02.8727576466E+011.0969577915E+01+
*       -6.504586925E+01               0
GRID*               3434               03.6851970907E+011.1596658720E+01+
*       -6.080995662E+01               0
GRID*               3435               04.4956125502E+011.2034757284E+01+
*       -5.655921282E+01               0
GRID*               3436               05.3034466626E+011.2126996161E+01+
*       -5.229684096E+01               0
GRID*               3437               06.1086931111E+011.2231501485E+01+
*       -4.801506922E+01               0
GRID*               3438               02.0869754896E+011.0337450207E+01+
*       -5.896331268E+01               0
GRID*               3439               02.8967749120E+011.0953202536E+01+
*       -5.472018928E+01               0
GRID*               3440               03.7046286092E+011.1572322699E+01+
*       -5.045744460E+01               0
GRID*               3441               04.5105329883E+011.1995020844E+01+
*       -4.617992724E+01               0
GRID*               3442               05.3139528363E+011.2105755038E+01+
*       -4.189021495E+01               0
GRID*               3443               06.1147829684E+011.2212757326E+01+
*       -3.758123638E+01               0
GRID*               3444               02.1156161807E+011.0306291393E+01+
*       -4.866492042E+01               0
GRID*               3445               02.9207943197E+011.0938388136E+01+
*       -4.439447618E+01               0
GRID*               3446               03.7240605623E+011.1548609074E+01+
*       -4.010491411E+01               0
GRID*               3447               04.5254496266E+011.1956663357E+01+
*       -3.580059902E+01               0
GRID*               3448               05.3244444546E+011.2085668071E+01+
*       -3.148350356E+01               0
GRID*               3449               06.1208514395E+011.2194591871E+01+
*       -2.714729640E+01               0
GRID*               3450               02.1442587261E+011.0277327329E+01+
*       -3.836648229E+01               0
GRID*               3451               02.9448075022E+011.0925153409E+01+
*       -3.406870410E+01               0
GRID*               3452               03.7434653415E+011.1525543737E+01+
*       -2.975225640E+01               0
GRID*               3453               04.5403102867E+011.1919863332E+01+
*       -2.542099121E+01               0
GRID*               3454               05.3348521442E+011.2066733126E+01+
*       -2.107636604E+01               0
GRID*               3455               06.1268401554E+011.2177008891E+01+
*       -1.671294496E+01               0
GRID*               3456               02.1728870482E+011.0250830922E+01+
*       -2.806793873E+01               0
GRID*               3457               02.9687497552E+011.0913470971E+01+
*       -2.374260898E+01               0
GRID*               3458               03.7627140774E+011.1503090195E+01+
*       -1.939888090E+01               0
GRID*               3459               04.5549368549E+011.1884726493E+01+
*       -1.504021462E+01               0
GRID*               3460               05.3449918541E+011.2048921960E+01+
*       -1.066782761E+01               0
GRID*               3461               06.1326227411E+011.2160008684E+01+
*       -6.277482237E+00               0
GRID*               3462               02.2014110466E+011.0226944443E+01+
*       -1.776890435E+01               0
GRID*               3463               02.9923848896E+011.0903170523E+01+
*       -1.341509375E+01               0
GRID*               3464               03.7814499389E+011.1481077684E+01+
*       -9.042993601E+00               0
GRID*               3465               04.5689322875E+011.1851243534E+01+
*       -4.656142653E+00               0
GRID*               3466               05.3545214794E+011.2032165313E+01+
*       -2.559640171E-01               0
GRID*               3467               06.1379973202E+011.2143591934E+01+
*       4.1602735148E+00               0
GRID*               3468               02.2295376146E+011.0205551335E+01+
*       -7.468021323E+00               0
GRID*               3469               03.0151274965E+011.0893788269E+01+
*       -3.083253927E+00               0
GRID*               3470               03.7989675108E+011.1459156635E+01+
*       1.3191738434E+00               0
GRID*               3471               04.5816466414E+011.1819249857E+01+
*       5.7349016586E+00               0
GRID*               3472               05.3629619514E+011.2016350801E+01+
*       1.0162073308E+01               0
GRID*               3473               06.1427152607E+011.2127770686E+01+
*       1.4601873067E+01               0
GRID*               3474               02.2564745655E+011.0185951099E+01+
*       2.8384199426E+00               0
GRID*               3475               03.0358164541E+011.0884375618E+01+
*       7.2588521991E+00               0
GRID*               3476               03.8141827705E+011.1436834468E+01+
*       1.1693731651E+01               0
GRID*               3477               04.5922648185E+011.1788424833E+01+
*       1.6137788001E+01               0
GRID*               3478               05.3697976064E+011.2001341529E+01+
*       2.0589583869E+01               0
GRID*               3479               06.1465389447E+011.2112586371E+01+
*       2.5048966157E+01               0
GRID*               7158               01.6209352493E+01-2.866219521E+00+
*       6.8584737778E+00               0
GRID*               6977               02.3139750308E+01-3.376909291E+00+
*       1.0859740335E+01               0
GRID*               6978               03.0064010805E+01-3.992239304E+00+
*       1.4857463884E+01               0
GRID*               6979               03.6988509308E+01-4.603225359E+00+
*       1.8855325100E+01               0
GRID*               6980               04.3919564681E+01-5.104155041E+00+
*       2.2856972053E+01               0
GRID*               6981               05.0854857004E+01-5.528831215E+00+
*       2.6861065311E+01               0
GRID*               6982               05.7793030489E+01-5.878230691E+00+
*       3.0866822226E+01               0
GRID*               6983               06.4734443589E+01-6.121845968E+00+
*       3.4874449935E+01               0
GRID*               7159               0-3.345381927E+01-4.036799908E+00+
*       -1.686128174E+03               0
GRID*               6970               0-2.006959417E+01-5.106828899E+00+
*       -1.686128174E+03               0
GRID*               6971               0-6.688916976E+00-6.226524687E+00+
*       -1.686128174E+03               0
GRID*               6972               06.7045226724E+00-7.191844416E+00+
*       -1.686128174E+03               0
GRID*               6973               02.0104282162E+01-8.060579008E+00+
*       -1.686128174E+03               0
GRID*               6974               03.3512784009E+01-8.769393794E+00+
*       -1.686128174E+03               0
GRID*               6975               04.6930588737E+01-9.288232556E+00+
*       -1.686128174E+03               0
GRID*               6976               06.0353788850E+01-9.630617939E+00+
*       -1.686128174E+03               0
GRID*               6806               01.5908363213E+01-2.873319307E+00+
*       -9.172028617E-01               0
GRID*               6807               01.5607373933E+01-2.880419093E+00+
*       -1.119287950E+01               0
GRID*               6808               01.5306384653E+01-2.887518880E+00+
*       -2.146855614E+01               0
GRID*               6809               01.5005395373E+01-2.894618666E+00+
*       -3.174423278E+01               0
GRID*               6810               01.4704406094E+01-2.901718453E+00+
*       -4.201990942E+01               0
GRID*               6811               01.4403416814E+01-2.908818239E+00+
*       -5.229558606E+01               0
GRID*               6812               01.4102427534E+01-2.915918025E+00+
*       -6.257126270E+01               0
GRID*               6813               01.3801438254E+01-2.923017812E+00+
*       -7.284693934E+01               0
GRID*               6814               01.3500448974E+01-2.930117598E+00+
*       -8.312261598E+01               0
GRID*               6815               01.3199459694E+01-2.937217385E+00+
*       -9.339829262E+01               0
GRID*               6816               01.2898470414E+01-2.944317171E+00+
*       -1.036739693E+02               0
GRID*               6817               01.2597481134E+01-2.951416957E+00+
*       -1.139496459E+02               0
GRID*               6818               01.2296491854E+01-2.958516744E+00+
*       -1.242253225E+02               0
GRID*               6819               01.1995502574E+01-2.965616530E+00+
*       -1.345009992E+02               0
GRID*               6820               01.1694513294E+01-2.972716317E+00+
*       -1.447766758E+02               0
GRID*               6821               01.1393524014E+01-2.979816103E+00+
*       -1.550523525E+02               0
GRID*               6822               01.1092534734E+01-2.986915890E+00+
*       -1.653280291E+02               0
GRID*               6823               01.0791545454E+01-2.994015676E+00+
*       -1.756037057E+02               0
GRID*               6824               01.0490556174E+01-3.001115462E+00+
*       -1.858793824E+02               0
GRID*               6825               01.0189566894E+01-3.008215249E+00+
*       -1.961550590E+02               0
GRID*               6826               09.8885776143E+00-3.015315035E+00+
*       -2.064307357E+02               0
GRID*               6827               09.5875883343E+00-3.022414822E+00+
*       -2.167064123E+02               0
GRID*               6828               09.2865990544E+00-3.029514608E+00+
*       -2.269820889E+02               0
GRID*               6829               08.9856097744E+00-3.036614394E+00+
*       -2.372577656E+02               0
GRID*               6830               08.6846204945E+00-3.043714181E+00+
*       -2.475334422E+02               0
GRID*               6831               08.3836312145E+00-3.050813967E+00+
*       -2.578091188E+02               0
GRID*               6832               08.0826419345E+00-3.057913754E+00+
*       -2.680847955E+02               0
GRID*               6833               07.7816526546E+00-3.065013540E+00+
*       -2.783604721E+02               0
GRID*               6834               07.4806633746E+00-3.072113326E+00+
*       -2.886361488E+02               0
GRID*               6835               07.1796740947E+00-3.079213113E+00+
*       -2.989118254E+02               0
GRID*               6836               06.8786848147E+00-3.086312899E+00+
*       -3.091875020E+02               0
GRID*               6837               06.5776955348E+00-3.093412686E+00+
*       -3.194631787E+02               0
GRID*               6838               06.2767062548E+00-3.100512472E+00+
*       -3.297388553E+02               0
GRID*               6839               05.9757169749E+00-3.107612258E+00+
*       -3.400145320E+02               0
GRID*               6840               05.6747276949E+00-3.114712045E+00+
*       -3.502902086E+02               0
GRID*               6841               05.3737384150E+00-3.121811831E+00+
*       -3.605658852E+02               0
GRID*               6842               05.0727491350E+00-3.128911618E+00+
*       -3.708415619E+02               0
GRID*               6843               04.7717598551E+00-3.136011404E+00+
*       -3.811172385E+02               0
GRID*               6844               04.4707705751E+00-3.143111190E+00+
*       -3.913929152E+02               0
GRID*               6845               04.1697812952E+00-3.150210977E+00+
*       -4.016685918E+02               0
GRID*               6846               03.8687920152E+00-3.157310763E+00+
*       -4.119442684E+02               0
GRID*               6847               03.5678027352E+00-3.164410550E+00+
*       -4.222199451E+02               0
GRID*               6848               03.2668134553E+00-3.171510336E+00+
*       -4.324956217E+02               0
GRID*               6849               02.9658241753E+00-3.178610123E+00+
*       -4.427712984E+02               0
GRID*               6850               02.6648348954E+00-3.185709909E+00+
*       -4.530469750E+02               0
GRID*               6851               02.3638456154E+00-3.192809695E+00+
*       -4.633226516E+02               0
GRID*               6852               02.0628563355E+00-3.199909482E+00+
*       -4.735983283E+02               0
GRID*               6853               01.7618670555E+00-3.207009268E+00+
*       -4.838740049E+02               0
GRID*               6854               01.4608777756E+00-3.214109055E+00+
*       -4.941496816E+02               0
GRID*               6855               01.1598884956E+00-3.221208841E+00+
*       -5.044253582E+02               0
GRID*               6856               08.5889921566E-01-3.228308627E+00+
*       -5.147010348E+02               0
GRID*               6857               05.5790993571E-01-3.235408414E+00+
*       -5.249767115E+02               0
GRID*               6858               02.5692065576E-01-3.242508200E+00+
*       -5.352523881E+02               0
GRID*               6859               0-4.406862420E-02-3.249607987E+00+
*       -5.455280648E+02               0
GRID*               6860               0-3.450579042E-01-3.256707773E+00+
*       -5.558037414E+02               0
GRID*               6861               0-6.460471841E-01-3.263807559E+00+
*       -5.660794180E+02               0
GRID*               6862               0-9.470364641E-01-3.270907346E+00+
*       -5.763550947E+02               0
GRID*               6863               0-1.248025744E+00-3.278007132E+00+
*       -5.866307713E+02               0
GRID*               6864               0-1.549015024E+00-3.285106919E+00+
*       -5.969064480E+02               0
GRID*               6865               0-1.850004304E+00-3.292206705E+00+
*       -6.071821246E+02               0
GRID*               6866               0-2.150993584E+00-3.299306491E+00+
*       -6.174578012E+02               0
GRID*               6867               0-2.451982864E+00-3.306406278E+00+
*       -6.277334779E+02               0
GRID*               6868               0-2.752972144E+00-3.313506064E+00+
*       -6.380091545E+02               0
GRID*               6869               0-3.053961424E+00-3.320605851E+00+
*       -6.482848311E+02               0
GRID*               6870               0-3.354950704E+00-3.327705637E+00+
*       -6.585605078E+02               0
GRID*               6871               0-3.655939984E+00-3.334805424E+00+
*       -6.688361844E+02               0
GRID*               6872               0-3.956929264E+00-3.341905210E+00+
*       -6.791118611E+02               0
GRID*               6873               0-4.257918544E+00-3.349004996E+00+
*       -6.893875377E+02               0
GRID*               6874               0-4.558907823E+00-3.356104783E+00+
*       -6.996632143E+02               0
GRID*               6875               0-4.859897103E+00-3.363204569E+00+
*       -7.099388910E+02               0
GRID*               6876               0-5.160886383E+00-3.370304356E+00+
*       -7.202145676E+02               0
GRID*               6877               0-5.461875663E+00-3.377404142E+00+
*       -7.304902443E+02               0
GRID*               6878               0-5.762864943E+00-3.384503928E+00+
*       -7.407659209E+02               0
GRID*               6879               0-6.063854223E+00-3.391603715E+00+
*       -7.510415975E+02               0
GRID*               6880               0-6.364843503E+00-3.398703501E+00+
*       -7.613172742E+02               0
GRID*               6881               0-6.665832783E+00-3.405803288E+00+
*       -7.715929508E+02               0
GRID*               6882               0-6.966822063E+00-3.412903074E+00+
*       -7.818686275E+02               0
GRID*               6883               0-7.267811343E+00-3.420002860E+00+
*       -7.921443041E+02               0
GRID*               6884               0-7.568800623E+00-3.427102647E+00+
*       -8.024199807E+02               0
GRID*               6885               0-7.869789903E+00-3.434202433E+00+
*       -8.126956574E+02               0
GRID*               6886               0-8.170779183E+00-3.441302220E+00+
*       -8.229713340E+02               0
GRID*               6887               0-8.471768463E+00-3.448402006E+00+
*       -8.332470107E+02               0
GRID*               6888               0-8.772757743E+00-3.455501792E+00+
*       -8.435226873E+02               0
GRID*               6889               0-9.073747023E+00-3.462601579E+00+
*       -8.537983639E+02               0
GRID*               6890               0-9.374736303E+00-3.469701365E+00+
*       -8.640740406E+02               0
GRID*               6891               0-9.675725583E+00-3.476801152E+00+
*       -8.743497172E+02               0
GRID*               6892               0-9.976714863E+00-3.483900938E+00+
*       -8.846253939E+02               0
GRID*               6893               0-1.027770414E+01-3.491000724E+00+
*       -8.949010705E+02               0
GRID*               6894               0-1.057869342E+01-3.498100511E+00+
*       -9.051767471E+02               0
GRID*               6895               0-1.087968270E+01-3.505200297E+00+
*       -9.154524238E+02               0
GRID*               6896               0-1.118067198E+01-3.512300084E+00+
*       -9.257281004E+02               0
GRID*               6897               0-1.148166126E+01-3.519399870E+00+
*       -9.360037771E+02               0
GRID*               6898               0-1.178265054E+01-3.526499657E+00+
*       -9.462794537E+02               0
GRID*               6899               0-1.208363982E+01-3.533599443E+00+
*       -9.565551303E+02               0
GRID*               6900               0-1.238462910E+01-3.540699229E+00+
*       -9.668308070E+02               0
GRID*               6901               0-1.268561838E+01-3.547799016E+00+
*       -9.771064836E+02               0
GRID*               6902               0-1.298660766E+01-3.554898802E+00+
*       -9.873821603E+02               0
GRID*               6903               0-1.328759694E+01-3.561998589E+00+
*       -9.976578369E+02               0
GRID*               6904               0-1.358858622E+01-3.569098375E+00+
*       -1.007933514E+03               0
GRID*               6905               0-1.388957550E+01-3.576198161E+00+
*       -1.018209190E+03               0
GRID*               6906               0-1.419056478E+01-3.583297948E+00+
*       -1.028484867E+03               0
GRID*               6907               0-1.449155406E+01-3.590397734E+00+
*       -1.038760543E+03               0
GRID*               6908               0-1.479254334E+01-3.597497521E+00+
*       -1.049036220E+03               0
GRID*               6909               0-1.509353262E+01-3.604597307E+00+
*       -1.059311897E+03               0
GRID*               6910               0-1.539452190E+01-3.611697093E+00+
*       -1.069587573E+03               0
GRID*               6911               0-1.569551118E+01-3.618796880E+00+
*       -1.079863250E+03               0
GRID*               6912               0-1.599650046E+01-3.625896666E+00+
*       -1.090138927E+03               0
GRID*               6913               0-1.629748974E+01-3.632996453E+00+
*       -1.100414603E+03               0
GRID*               6914               0-1.659847902E+01-3.640096239E+00+
*       -1.110690280E+03               0
GRID*               6915               0-1.689946830E+01-3.647196025E+00+
*       -1.120965957E+03               0
GRID*               6916               0-1.720045758E+01-3.654295812E+00+
*       -1.131241633E+03               0
GRID*               6917               0-1.750144686E+01-3.661395598E+00+
*       -1.141517310E+03               0
GRID*               6918               0-1.780243614E+01-3.668495385E+00+
*       -1.151792986E+03               0
GRID*               6919               0-1.810342542E+01-3.675595171E+00+
*       -1.162068663E+03               0
GRID*               6920               0-1.840441470E+01-3.682694957E+00+
*       -1.172344340E+03               0
GRID*               6921               0-1.870540398E+01-3.689794744E+00+
*       -1.182620016E+03               0
GRID*               6922               0-1.900639326E+01-3.696894530E+00+
*       -1.192895693E+03               0
GRID*               6923               0-1.930738254E+01-3.703994317E+00+
*       -1.203171370E+03               0
GRID*               6924               0-1.960837182E+01-3.711094103E+00+
*       -1.213447046E+03               0
GRID*               6925               0-1.990936110E+01-3.718193890E+00+
*       -1.223722723E+03               0
GRID*               6926               0-2.021035038E+01-3.725293676E+00+
*       -1.233998400E+03               0
GRID*               6927               0-2.051133966E+01-3.732393462E+00+
*       -1.244274076E+03               0
GRID*               6928               0-2.081232894E+01-3.739493249E+00+
*       -1.254549753E+03               0
GRID*               6929               0-2.111331822E+01-3.746593035E+00+
*       -1.264825430E+03               0
GRID*               6930               0-2.141430750E+01-3.753692822E+00+
*       -1.275101106E+03               0
GRID*               6931               0-2.171529678E+01-3.760792608E+00+
*       -1.285376783E+03               0
GRID*               6932               0-2.201628606E+01-3.767892394E+00+
*       -1.295652459E+03               0
GRID*               6933               0-2.231727534E+01-3.774992181E+00+
*       -1.305928136E+03               0
GRID*               6934               0-2.261826462E+01-3.782091967E+00+
*       -1.316203813E+03               0
GRID*               6935               0-2.291925390E+01-3.789191754E+00+
*       -1.326479489E+03               0
GRID*               6936               0-2.322024318E+01-3.796291540E+00+
*       -1.336755166E+03               0
GRID*               6937               0-2.352123246E+01-3.803391326E+00+
*       -1.347030843E+03               0
GRID*               6938               0-2.382222174E+01-3.810491113E+00+
*       -1.357306519E+03               0
GRID*               6939               0-2.412321102E+01-3.817590899E+00+
*       -1.367582196E+03               0
GRID*               6940               0-2.442420030E+01-3.824690686E+00+
*       -1.377857873E+03               0
GRID*               6941               0-2.472518958E+01-3.831790472E+00+
*       -1.388133549E+03               0
GRID*               6942               0-2.502617886E+01-3.838890258E+00+
*       -1.398409226E+03               0
GRID*               6943               0-2.532716814E+01-3.845990045E+00+
*       -1.408684902E+03               0
GRID*               6944               0-2.562815742E+01-3.853089831E+00+
*       -1.418960579E+03               0
GRID*               6945               0-2.592914670E+01-3.860189618E+00+
*       -1.429236256E+03               0
GRID*               6946               0-2.623013598E+01-3.867289404E+00+
*       -1.439511932E+03               0
GRID*               6947               0-2.653112526E+01-3.874389191E+00+
*       -1.449787609E+03               0
GRID*               6948               0-2.683211454E+01-3.881488977E+00+
*       -1.460063286E+03               0
GRID*               6949               0-2.713310382E+01-3.888588763E+00+
*       -1.470338962E+03               0
GRID*               6950               0-2.743409310E+01-3.895688550E+00+
*       -1.480614639E+03               0
GRID*               6951               0-2.773508238E+01-3.902788336E+00+
*       -1.490890316E+03               0
GRID*               6952               0-2.803607166E+01-3.909888123E+00+
*       -1.501165992E+03               0
GRID*               6953               0-2.833706094E+01-3.916987909E+00+
*       -1.511441669E+03               0
GRID*               6954               0-2.863805022E+01-3.924087695E+00+
*       -1.521717346E+03               0
GRID*               6955               0-2.893903950E+01-3.931187482E+00+
*       -1.531993022E+03               0
GRID*               6956               0-2.924002878E+01-3.938287268E+00+
*       -1.542268699E+03               0
GRID*               6957               0-2.954101806E+01-3.945387055E+00+
*       -1.552544375E+03               0
GRID*               6958               0-2.984200734E+01-3.952486841E+00+
*       -1.562820052E+03               0
GRID*               6959               0-3.014299662E+01-3.959586627E+00+
*       -1.573095729E+03               0
GRID*               6960               0-3.044398590E+01-3.966686414E+00+
*       -1.583371405E+03               0
GRID*               6961               0-3.074497518E+01-3.973786200E+00+
*       -1.593647082E+03               0
GRID*               6962               0-3.104596446E+01-3.980885987E+00+
*       -1.603922759E+03               0
GRID*               6963               0-3.134695374E+01-3.987985773E+00+
*       -1.614198435E+03               0
GRID*               6964               0-3.164794302E+01-3.995085559E+00+
*       -1.624474112E+03               0
GRID*               6965               0-3.194893230E+01-4.002185346E+00+
*       -1.634749789E+03               0
GRID*               6966               0-3.224992158E+01-4.009285132E+00+
*       -1.645025465E+03               0
GRID*               6967               0-3.255091086E+01-4.016384919E+00+
*       -1.655301142E+03               0
GRID*               6968               0-3.285190014E+01-4.023484705E+00+
*       -1.665576818E+03               0
GRID*               6969               0-3.315288093E+01-4.030457407E+00+
*       -1.675852495E+03               0
GRID*               4672               0-4.838275491E+01-3.238054973E+00+
*       -1.675879854E+03               0
GRID*               4673               0-4.804944720E+01-3.232601769E+00+
*       -1.665635603E+03               0
GRID*               4674               0-4.771637476E+01-3.227361371E+00+
*       -1.655392914E+03               0
GRID*               4675               0-4.738340229E+01-3.222298424E+00+
*       -1.645150836E+03               0
GRID*               4676               0-4.705047545E+01-3.217383887E+00+
*       -1.634908995E+03               0
GRID*               4677               0-4.671757207E+01-3.212594155E+00+
*       -1.624667245E+03               0
GRID*               4678               0-4.638468280E+01-3.207910042E+00+
*       -1.614425529E+03               0
GRID*               4679               0-4.605180344E+01-3.203315896E+00+
*       -1.604183826E+03               0
GRID*               4680               0-4.571893188E+01-3.198798864E+00+
*       -1.593942128E+03               0
GRID*               4681               0-4.538606692E+01-3.194348329E+00+
*       -1.583700430E+03               0
GRID*               4682               0-4.505320775E+01-3.189955463E+00+
*       -1.573458732E+03               0
GRID*               4683               0-4.472035380E+01-3.185612886E+00+
*       -1.563217033E+03               0
GRID*               4684               0-4.438750461E+01-3.181314400E+00+
*       -1.552975333E+03               0
GRID*               4685               0-4.405465979E+01-3.177054776E+00+
*       -1.542733633E+03               0
GRID*               4686               0-4.372181904E+01-3.172829596E+00+
*       -1.532491931E+03               0
GRID*               4687               0-4.338898211E+01-3.168635110E+00+
*       -1.522250229E+03               0
GRID*               4688               0-4.305614876E+01-3.164468143E+00+
*       -1.512008526E+03               0
GRID*               4689               0-4.272331882E+01-3.160326003E+00+
*       -1.501766822E+03               0
GRID*               4690               0-4.239049213E+01-3.156206411E+00+
*       -1.491525117E+03               0
GRID*               4691               0-4.205766857E+01-3.152107453E+00+
*       -1.481283411E+03               0
GRID*               4692               0-4.172484803E+01-3.148027524E+00+
*       -1.471041704E+03               0
GRID*               4693               0-4.139203042E+01-3.143965301E+00+
*       -1.460799997E+03               0
GRID*               4694               0-4.105921568E+01-3.139919704E+00+
*       -1.450558288E+03               0
GRID*               4695               0-4.072640375E+01-3.135889877E+00+
*       -1.440316579E+03               0
GRID*               4696               0-4.039359461E+01-3.131875166E+00+
*       -1.430074869E+03               0
GRID*               4697               0-4.006078822E+01-3.127875101E+00+
*       -1.419833158E+03               0
GRID*               4698               0-3.972798458E+01-3.123889388E+00+
*       -1.409591447E+03               0
GRID*               4699               0-3.939518369E+01-3.119917893E+00+
*       -1.399349735E+03               0
GRID*               4700               0-3.906238556E+01-3.115960643E+00+
*       -1.389108021E+03               0
GRID*               4701               0-3.872959022E+01-3.112017814E+00+
*       -1.378866308E+03               0
GRID*               4702               0-3.839679770E+01-3.108089734E+00+
*       -1.368624593E+03               0
GRID*               4703               0-3.806400806E+01-3.104176878E+00+
*       -1.358382878E+03               0
GRID*               4704               0-3.773122135E+01-3.100279877E+00+
*       -1.348141161E+03               0
GRID*               4705               0-3.739843764E+01-3.096399515E+00+
*       -1.337899445E+03               0
GRID*               4706               0-3.706565702E+01-3.092536741E+00+
*       -1.327657727E+03               0
GRID*               4707               0-3.673287959E+01-3.088692675E+00+
*       -1.317416009E+03               0
GRID*               4708               0-3.640010539E+01-3.084868622E+00+
*       -1.307174290E+03               0
GRID*               4709               0-3.606733444E+01-3.081066093E+00+
*       -1.296932570E+03               0
GRID*               4710               0-3.573456661E+01-3.077286817E+00+
*       -1.286690849E+03               0
GRID*               4711               0-3.540180134E+01-3.073532794E+00+
*       -1.276449128E+03               0
GRID*               4712               0-3.506903728E+01-3.069806338E+00+
*       -1.266207407E+03               0
GRID*               4713               0-3.473627508E+01-3.066109932E+00+
*       -1.255965684E+03               0
GRID*               4714               0-3.440351653E+01-3.062446313E+00+
*       -1.245723961E+03               0
GRID*               4715               0-3.407076233E+01-3.058818662E+00+
*       -1.235482237E+03               0
GRID*               4716               0-3.373801294E+01-3.055230598E+00+
*       -1.225240513E+03               0
GRID*               4717               0-3.340526875E+01-3.051686236E+00+
*       -1.214998787E+03               0
GRID*               4718               0-3.307253016E+01-3.048190252E+00+
*       -1.204757061E+03               0
GRID*               4719               0-3.273979761E+01-3.044747979E+00+
*       -1.194515335E+03               0
GRID*               4720               0-3.240707160E+01-3.041365510E+00+
*       -1.184273607E+03               0
GRID*               4721               0-3.207435267E+01-3.038049839E+00+
*       -1.174031879E+03               0
GRID*               4722               0-3.174164148E+01-3.034809018E+00+
*       -1.163790150E+03               0
GRID*               4723               0-3.140893876E+01-3.031652370E+00+
*       -1.153548420E+03               0
GRID*               4724               0-3.107624539E+01-3.028590734E+00+
*       -1.143306689E+03               0
GRID*               4725               0-3.074356237E+01-3.025636792E+00+
*       -1.133064958E+03               0
GRID*               4726               0-3.041089089E+01-3.022805468E+00+
*       -1.122823225E+03               0
GRID*               4727               0-3.007823234E+01-3.020114445E+00+
*       -1.112581492E+03               0
GRID*               4728               0-2.974558841E+01-3.017584833E+00+
*       -1.102339757E+03               0
GRID*               4729               0-2.941296111E+01-3.015242040E+00+
*       -1.092098022E+03               0
GRID*               4730               0-2.908035289E+01-3.013116922E+00+
*       -1.081856285E+03               0
GRID*               4731               0-2.874776673E+01-3.011247331E+00+
*       -1.071614547E+03               0
GRID*               4732               0-2.841520636E+01-3.009680213E+00+
*       -1.061372807E+03               0
GRID*               4733               0-2.808267645E+01-3.008474529E+00+
*       -1.051131066E+03               0
GRID*               4734               0-2.775114241E+01-2.996601175E+00+
*       -1.040889304E+03               0
GRID*               4735               0-2.741805643E+01-2.990787544E+00+
*       -1.030647574E+03               0
GRID*               4736               0-2.708557070E+01-2.990701854E+00+
*       -1.020405830E+03               0
GRID*               4737               0-2.675297887E+01-2.989491952E+00+
*       -1.010164090E+03               0
GRID*               4738               0-2.642029466E+01-2.987302704E+00+
*       -9.999223526E+02               0
GRID*               4739               0-2.608752928E+01-2.984252910E+00+
*       -9.896806181E+02               0
GRID*               4740               0-2.575469204E+01-2.980441224E+00+
*       -9.794388861E+02               0
GRID*               4741               0-2.542179077E+01-2.975950524E+00+
*       -9.691971562E+02               0
GRID*               4742               0-2.508883209E+01-2.970851187E+00+
*       -9.589554281E+02               0
GRID*               4743               0-2.475582167E+01-2.965203578E+00+
*       -9.487137017E+02               0
GRID*               4744               0-2.442276443E+01-2.959059963E+00+
*       -9.384719767E+02               0
GRID*               4745               0-2.408966463E+01-2.952465995E+00+
*       -9.282302531E+02               0
GRID*               4746               0-2.375652605E+01-2.945461883E+00+
*       -9.179885306E+02               0
GRID*               4747               0-2.342335203E+01-2.938083321E+00+
*       -9.077468092E+02               0
GRID*               4748               0-2.309014553E+01-2.930362225E+00+
*       -8.975050887E+02               0
GRID*               4749               0-2.275690923E+01-2.922327333E+00+
*       -8.872633691E+02               0
GRID*               4750               0-2.242364555E+01-2.914004694E+00+
*       -8.770216502E+02               0
GRID*               4751               0-2.209035669E+01-2.905418058E+00+
*       -8.667799320E+02               0
GRID*               4752               0-2.175704468E+01-2.896589214E+00+
*       -8.565382145E+02               0
GRID*               4753               0-2.142371135E+01-2.887538254E+00+
*       -8.462964975E+02               0
GRID*               4754               0-2.109035844E+01-2.878283804E+00+
*       -8.360547809E+02               0
GRID*               4755               0-2.075698753E+01-2.868843212E+00+
*       -8.258130648E+02               0
GRID*               4756               0-2.042360011E+01-2.859232715E+00+
*       -8.155713492E+02               0
GRID*               4757               0-2.009019757E+01-2.849467566E+00+
*       -8.053296338E+02               0
GRID*               4758               0-1.975678125E+01-2.839562161E+00+
*       -7.950879187E+02               0
GRID*               4759               0-1.942335236E+01-2.829530132E+00+
*       -7.848462039E+02               0
GRID*               4760               0-1.908991210E+01-2.819384437E+00+
*       -7.746044893E+02               0
GRID*               4761               0-1.875646158E+01-2.809137433E+00+
*       -7.643627749E+02               0
GRID*               4762               0-1.842300188E+01-2.798800943E+00+
*       -7.541210606E+02               0
GRID*               4763               0-1.808953402E+01-2.788386314E+00+
*       -7.438793465E+02               0
GRID*               4764               0-1.775605899E+01-2.777904466E+00+
*       -7.336376324E+02               0
GRID*               4765               0-1.742257773E+01-2.767365941E+00+
*       -7.233959183E+02               0
GRID*               4766               0-1.708909116E+01-2.756780937E+00+
*       -7.131542043E+02               0
GRID*               4767               0-1.675560017E+01-2.746159352E+00+
*       -7.029124903E+02               0
GRID*               4768               0-1.642210562E+01-2.735510817E+00+
*       -6.926707762E+02               0
GRID*               4769               0-1.608860834E+01-2.724844721E+00+
*       -6.824290621E+02               0
GRID*               4770               0-1.575510917E+01-2.714170246E+00+
*       -6.721873479E+02               0
GRID*               4771               0-1.542160890E+01-2.703496396E+00+
*       -6.619456336E+02               0
GRID*               4772               0-1.508810832E+01-2.692832017E+00+
*       -6.517039191E+02               0
GRID*               4773               0-1.475460819E+01-2.682185830E+00+
*       -6.414622045E+02               0
GRID*               4774               0-1.442110930E+01-2.671566453E+00+
*       -6.312204896E+02               0
GRID*               4775               0-1.408761238E+01-2.660982431E+00+
*       -6.209787746E+02               0
GRID*               4776               0-1.375411820E+01-2.650442258E+00+
*       -6.107370594E+02               0
GRID*               4777               0-1.342062749E+01-2.639954412E+00+
*       -6.004953439E+02               0
GRID*               4778               0-1.308714102E+01-2.629527381E+00+
*       -5.902536281E+02               0
GRID*               4779               0-1.275365953E+01-2.619169701E+00+
*       -5.800119120E+02               0
GRID*               4780               0-1.242018377E+01-2.608889987E+00+
*       -5.697701956E+02               0
GRID*               4781               0-1.208671452E+01-2.598696981E+00+
*       -5.595284788E+02               0
GRID*               4782               0-1.175325256E+01-2.588599595E+00+
*       -5.492867617E+02               0
GRID*               4783               0-1.141979869E+01-2.578606968E+00+
*       -5.390450441E+02               0
GRID*               4784               0-1.108635373E+01-2.568728529E+00+
*       -5.288033262E+02               0
GRID*               4785               0-1.075291854E+01-2.558974069E+00+
*       -5.185616078E+02               0
GRID*               4786               0-1.041949402E+01-2.549353838E+00+
*       -5.083198889E+02               0
GRID*               4787               0-1.008608111E+01-2.539878641E+00+
*       -4.980781695E+02               0
GRID*               4788               0-9.752680823E+00-2.530559981E+00+
*       -4.878364495E+02               0
GRID*               4789               0-9.419294228E+00-2.521410208E+00+
*       -4.775947290E+02               0
GRID*               4790               0-9.085922499E+00-2.512442722E+00+
*       -4.673530078E+02               0
GRID*               4791               0-8.752566917E+00-2.503672221E+00+
*       -4.571112860E+02               0
GRID*               4792               0-8.419228908E+00-2.495115009E+00+
*       -4.468695634E+02               0
GRID*               4793               0-8.085910068E+00-2.486789394E+00+
*       -4.366278401E+02               0
GRID*               4794               0-7.752612216E+00-2.478716205E+00+
*       -4.263861160E+02               0
GRID*               4795               0-7.419337448E+00-2.470919457E+00+
*       -4.161443909E+02               0
GRID*               4796               0-7.086088218E+00-2.463427239E+00+
*       -4.059026648E+02               0
GRID*               4797               0-6.752867438E+00-2.456272901E+00+
*       -3.956609376E+02               0
GRID*               4798               0-6.419678623E+00-2.449496677E+00+
*       -3.854192092E+02               0
GRID*               4799               0-6.086526087E+00-2.443147927E+00+
*       -3.751774794E+02               0
GRID*               4800               0-5.753415218E+00-2.437288310E+00+
*       -3.649357480E+02               0
GRID*               4801               0-5.420352883E+00-2.431996369E+00+
*       -3.546940147E+02               0
GRID*               4802               0-5.087348020E+00-2.427374312E+00+
*       -3.444522792E+02               0
GRID*               4803               0-4.754390468E+00-2.422859559E+00+
*       -3.342105417E+02               0
GRID*               4804               0-4.421062953E+00-2.413523415E+00+
*       -3.239688166E+02               0
GRID*               4805               0-4.087720977E+00-2.404128450E+00+
*       -3.137270919E+02               0
GRID*               4806               0-3.754503031E+00-2.396385337E+00+
*       -3.034853625E+02               0
GRID*               4807               0-3.421451653E+00-2.390813071E+00+
*       -2.932436271E+02               0
GRID*               4808               0-3.088578775E+00-2.387549939E+00+
*       -2.830018850E+02               0
GRID*               4809               0-2.755881767E+00-2.386551877E+00+
*       -2.727601366E+02               0
GRID*               4810               0-2.423345632E+00-2.387617790E+00+
*       -2.625183823E+02               0
GRID*               4811               0-2.090934123E+00-2.390273490E+00+
*       -2.522766236E+02               0
GRID*               4812               0-1.758547604E+00-2.393226569E+00+
*       -2.420348639E+02               0
GRID*               4813               0-1.426123873E+00-2.394563120E+00+
*       -2.317931086E+02               0
GRID*               4814               0-1.094478586E+00-2.404388908E+00+
*       -2.215513332E+02               0
GRID*               4815               0-7.635531925E-01-2.422957473E+00+
*       -2.113095379E+02               0
GRID*               4816               0-4.331849164E-01-2.448292986E+00+
*       -2.010677270E+02               0
GRID*               4817               0-1.032236290E-01-2.478573131E+00+
*       -1.908259050E+02               0
GRID*               4818               02.2646926347E-01-2.512115615E+00+
*       -1.805840755E+02               0
GRID*               4819               05.5602182241E-01-2.547365996E+00+
*       -1.703422422E+02               0
GRID*               4820               08.8555248174E-01-2.582886695E+00+
*       -1.601004084E+02               0
GRID*               4821               01.2151708675E+00-2.617347048E+00+
*       -1.498585772E+02               0
GRID*               4822               01.5449785406E+00-2.649514285E+00+
*       -1.396167513E+02               0
GRID*               4823               01.8750696726E+00-2.678245334E+00+
*       -1.293749335E+02               0
GRID*               4824               02.2055316600E+00-2.702479357E+00+
*       -1.191331262E+02               0
GRID*               4825               02.5364456854E+00-2.721230939E+00+
*       -1.088913316E+02               0
GRID*               4826               02.8678872304E+00-2.733583865E+00+
*       -9.864955186E+01               0
GRID*               4827               03.1999265452E+00-2.738685414E+00+
*       -8.840778893E+01               0
GRID*               4828               03.5326290802E+00-2.735741124E+00+
*       -7.816604463E+01               0
GRID*               4829               03.8660558824E+00-2.724009977E+00+
*       -6.792432069E+01               0
GRID*               4830               04.2002639617E+00-2.702799952E+00+
*       -5.768261868E+01               0
GRID*               4831               04.5353066285E+00-2.671463927E+00+
*       -4.744094011E+01               0
GRID*               4832               04.8712338077E+00-2.629395871E+00+
*       -3.719928636E+01               0
GRID*               4833               05.2088451795E+00-2.576169981E+00+
*       -2.695960345E+01               0
GRID*               4834               05.5500767656E+00-2.511484051E+00+
*       -1.672678480E+01               0
GRID*               4835               05.9007072350E+00-2.435352475E+00+
*       -6.515687105E+00               0
GRID*               7160               07.3780570984E+01-9.732884407E+00+
*       -1.686128174E+03               0
GRID*               7161               07.1677970886E+01-6.257553101E+00+
*       3.8883296967E+01               0
GRID*               6984               07.1690752715E+01-6.271986546E+00+
*       3.0913518534E+01               0
GRID*               6985               07.1703534544E+01-6.286419991E+00+
*       2.0443740102E+01               0
GRID*               6986               07.1716316372E+01-6.300853436E+00+
*       9.9739616699E+00               0
GRID*               6987               07.1729098201E+01-6.315286881E+00+
*       -4.958167624E-01               0
GRID*               6988               07.1741880030E+01-6.329720326E+00+
*       -1.096559519E+01               0
GRID*               6989               07.1754661858E+01-6.344153771E+00+
*       -2.143537363E+01               0
GRID*               6990               07.1767443687E+01-6.358587216E+00+
*       -3.190515206E+01               0
GRID*               6991               07.1780225516E+01-6.373020661E+00+
*       -4.237493049E+01               0
GRID*               6992               07.1793007344E+01-6.387454106E+00+
*       -5.284470892E+01               0
GRID*               6993               07.1805789173E+01-6.401887551E+00+
*       -6.331448736E+01               0
GRID*               6994               07.1818571002E+01-6.416320996E+00+
*       -7.378426579E+01               0
GRID*               6995               07.1831358929E+01-6.429756309E+00+
*       -8.425404552E+01               0
GRID*               6996               07.1844149468E+01-6.442764264E+00+
*       -9.472382581E+01               0
GRID*               6997               07.1856940006E+01-6.455772220E+00+
*       -1.051936061E+02               0
GRID*               6998               07.1869730545E+01-6.468780175E+00+
*       -1.156633864E+02               0
GRID*               6999               07.1882521083E+01-6.481788130E+00+
*       -1.261331667E+02               0
GRID*               7000               07.1895311622E+01-6.494796086E+00+
*       -1.366029470E+02               0
GRID*               7001               07.1908102160E+01-6.507804041E+00+
*       -1.470727273E+02               0
GRID*               7002               07.1920892699E+01-6.520811996E+00+
*       -1.575425075E+02               0
GRID*               7003               07.1933683237E+01-6.533819952E+00+
*       -1.680122878E+02               0
GRID*               7004               07.1946473776E+01-6.546827907E+00+
*       -1.784820681E+02               0
GRID*               7005               07.1959264314E+01-6.559835863E+00+
*       -1.889518484E+02               0
GRID*               7006               07.1972054853E+01-6.572843818E+00+
*       -1.994216287E+02               0
GRID*               7007               07.1984845392E+01-6.585851773E+00+
*       -2.098914090E+02               0
GRID*               7008               07.1997635930E+01-6.598859729E+00+
*       -2.203611893E+02               0
GRID*               7009               07.2010426469E+01-6.611867684E+00+
*       -2.308309696E+02               0
GRID*               7010               07.2023217007E+01-6.624875639E+00+
*       -2.413007499E+02               0
GRID*               7011               07.2036007546E+01-6.637883595E+00+
*       -2.517705302E+02               0
GRID*               7012               07.2048798084E+01-6.650891550E+00+
*       -2.622403104E+02               0
GRID*               7013               07.2061588623E+01-6.663899506E+00+
*       -2.727100907E+02               0
GRID*               7014               07.2074379161E+01-6.676907461E+00+
*       -2.831798710E+02               0
GRID*               7015               07.2087169700E+01-6.689915416E+00+
*       -2.936496513E+02               0
GRID*               7016               07.2099960239E+01-6.702923372E+00+
*       -3.041194316E+02               0
GRID*               7017               07.2112750777E+01-6.715931327E+00+
*       -3.145892119E+02               0
GRID*               7018               07.2125541316E+01-6.728939282E+00+
*       -3.250589922E+02               0
GRID*               7019               07.2138284740E+01-6.749938680E+00+
*       -3.355287587E+02               0
GRID*               7020               07.2151015641E+01-6.773062290E+00+
*       -3.459985216E+02               0
GRID*               7021               07.2163746542E+01-6.796185901E+00+
*       -3.564682846E+02               0
GRID*               7022               07.2176477444E+01-6.819309511E+00+
*       -3.669380475E+02               0
GRID*               7023               07.2189208345E+01-6.842433121E+00+
*       -3.774078104E+02               0
GRID*               7024               07.2201939246E+01-6.865556732E+00+
*       -3.878775733E+02               0
GRID*               7025               07.2214670147E+01-6.888680342E+00+
*       -3.983473362E+02               0
GRID*               7026               07.2227401048E+01-6.911803952E+00+
*       -4.088170991E+02               0
GRID*               7027               07.2240131949E+01-6.934927562E+00+
*       -4.192868620E+02               0
GRID*               7028               07.2252862850E+01-6.958051173E+00+
*       -4.297566249E+02               0
GRID*               7029               07.2265593751E+01-6.981174783E+00+
*       -4.402263878E+02               0
GRID*               7030               07.2278324652E+01-7.004298393E+00+
*       -4.506961507E+02               0
GRID*               7031               07.2291055554E+01-7.027422004E+00+
*       -4.611659136E+02               0
GRID*               7032               07.2303786455E+01-7.050545614E+00+
*       -4.716356765E+02               0
GRID*               7033               07.2316517356E+01-7.073669224E+00+
*       -4.821054394E+02               0
GRID*               7034               07.2329248257E+01-7.096792834E+00+
*       -4.925752024E+02               0
GRID*               7035               07.2341979158E+01-7.119916445E+00+
*       -5.030449653E+02               0
GRID*               7036               07.2354710059E+01-7.143040055E+00+
*       -5.135147282E+02               0
GRID*               7037               07.2367440960E+01-7.166163665E+00+
*       -5.239844911E+02               0
GRID*               7038               07.2380171861E+01-7.189287276E+00+
*       -5.344542540E+02               0
GRID*               7039               07.2392902763E+01-7.212410886E+00+
*       -5.449240169E+02               0
GRID*               7040               07.2405633664E+01-7.235534496E+00+
*       -5.553937798E+02               0
GRID*               7041               07.2418364565E+01-7.258658106E+00+
*       -5.658635427E+02               0
GRID*               7042               07.2431095466E+01-7.281781717E+00+
*       -5.763333056E+02               0
GRID*               7043               07.2443826367E+01-7.304905327E+00+
*       -5.868030685E+02               0
GRID*               7044               07.2456557268E+01-7.328028937E+00+
*       -5.972728314E+02               0
GRID*               7045               07.2469288169E+01-7.351152548E+00+
*       -6.077425943E+02               0
GRID*               7046               07.2482019070E+01-7.374276158E+00+
*       -6.182123572E+02               0
GRID*               7047               07.2494749971E+01-7.397399768E+00+
*       -6.286821202E+02               0
GRID*               7048               07.2507480873E+01-7.420523378E+00+
*       -6.391518831E+02               0
GRID*               7049               07.2520211774E+01-7.443646989E+00+
*       -6.496216460E+02               0
GRID*               7050               07.2532942675E+01-7.466770599E+00+
*       -6.600914089E+02               0
GRID*               7051               07.2545673576E+01-7.489894209E+00+
*       -6.705611718E+02               0
GRID*               7052               07.2558404477E+01-7.513017820E+00+
*       -6.810309347E+02               0
GRID*               7053               07.2571135378E+01-7.536141430E+00+
*       -6.915006976E+02               0
GRID*               7054               07.2583866279E+01-7.559265040E+00+
*       -7.019704605E+02               0
GRID*               7055               07.2596597180E+01-7.582388650E+00+
*       -7.124402234E+02               0
GRID*               7056               07.2609328081E+01-7.605512261E+00+
*       -7.229099863E+02               0
GRID*               7057               07.2622058983E+01-7.628635871E+00+
*       -7.333797492E+02               0
GRID*               7058               07.2634789884E+01-7.651759481E+00+
*       -7.438495121E+02               0
GRID*               7059               07.2647520785E+01-7.674883092E+00+
*       -7.543192750E+02               0
GRID*               7060               07.2660251686E+01-7.698006702E+00+
*       -7.647890380E+02               0
GRID*               7061               07.2672982587E+01-7.721130312E+00+
*       -7.752588009E+02               0
GRID*               7062               07.2685713488E+01-7.744253922E+00+
*       -7.857285638E+02               0
GRID*               7063               07.2698444389E+01-7.767377533E+00+
*       -7.961983267E+02               0
GRID*               7064               07.2711175290E+01-7.790501143E+00+
*       -8.066680896E+02               0
GRID*               7065               07.2723906191E+01-7.813624753E+00+
*       -8.171378525E+02               0
GRID*               7066               07.2736637093E+01-7.836748364E+00+
*       -8.276076154E+02               0
GRID*               7067               07.2749367994E+01-7.859871974E+00+
*       -8.380773783E+02               0
GRID*               7068               07.2762098895E+01-7.882995584E+00+
*       -8.485471412E+02               0
GRID*               7069               07.2774829796E+01-7.906119194E+00+
*       -8.590169041E+02               0
GRID*               7070               07.2787560697E+01-7.929242805E+00+
*       -8.694866670E+02               0
GRID*               7071               07.2800291598E+01-7.952366415E+00+
*       -8.799564299E+02               0
GRID*               7072               07.2813022499E+01-7.975490025E+00+
*       -8.904261928E+02               0
GRID*               7073               07.2825753400E+01-7.998613636E+00+
*       -9.008959558E+02               0
GRID*               7074               07.2838484301E+01-8.021737246E+00+
*       -9.113657187E+02               0
GRID*               7075               07.2851215203E+01-8.044860856E+00+
*       -9.218354816E+02               0
GRID*               7076               07.2863946104E+01-8.067984466E+00+
*       -9.323052445E+02               0
GRID*               7077               07.2876677005E+01-8.091108077E+00+
*       -9.427750074E+02               0
GRID*               7078               07.2889407906E+01-8.114231687E+00+
*       -9.532447703E+02               0
GRID*               7079               07.2902138807E+01-8.137355297E+00+
*       -9.637145332E+02               0
GRID*               7080               07.2914869708E+01-8.160478908E+00+
*       -9.741842961E+02               0
GRID*               7081               07.2927600609E+01-8.183602518E+00+
*       -9.846540590E+02               0
GRID*               7082               07.2940331510E+01-8.206726128E+00+
*       -9.951238219E+02               0
GRID*               7083               07.2953062412E+01-8.229849738E+00+
*       -1.005593585E+03               0
GRID*               7084               07.2965793313E+01-8.252973349E+00+
*       -1.016063348E+03               0
GRID*               7085               07.2978524214E+01-8.276096959E+00+
*       -1.026533111E+03               0
GRID*               7086               07.2991255115E+01-8.299220569E+00+
*       -1.037002874E+03               0
GRID*               7087               07.3003986016E+01-8.322344180E+00+
*       -1.047472636E+03               0
GRID*               7088               07.3016716917E+01-8.345467790E+00+
*       -1.057942399E+03               0
GRID*               7089               07.3029447818E+01-8.368591400E+00+
*       -1.068412162E+03               0
GRID*               7090               07.3042178719E+01-8.391715010E+00+
*       -1.078881925E+03               0
GRID*               7091               07.3054909620E+01-8.414838621E+00+
*       -1.089351688E+03               0
GRID*               7092               07.3067640522E+01-8.437962231E+00+
*       -1.099821451E+03               0
GRID*               7093               07.3080371423E+01-8.461085841E+00+
*       -1.110291214E+03               0
GRID*               7094               07.3093102324E+01-8.484209452E+00+
*       -1.120760977E+03               0
GRID*               7095               07.3105833225E+01-8.507333062E+00+
*       -1.131230740E+03               0
GRID*               7096               07.3118564126E+01-8.530456672E+00+
*       -1.141700503E+03               0
GRID*               7097               07.3131295027E+01-8.553580282E+00+
*       -1.152170266E+03               0
GRID*               7098               07.3144025928E+01-8.576703893E+00+
*       -1.162640028E+03               0
GRID*               7099               07.3156756829E+01-8.599827503E+00+
*       -1.173109791E+03               0
GRID*               7100               07.3169487730E+01-8.622951113E+00+
*       -1.183579554E+03               0
GRID*               7101               07.3182218632E+01-8.646074724E+00+
*       -1.194049317E+03               0
GRID*               7102               07.3194949533E+01-8.669198334E+00+
*       -1.204519080E+03               0
GRID*               7103               07.3207680434E+01-8.692321944E+00+
*       -1.214988843E+03               0
GRID*               7104               07.3220411335E+01-8.715445554E+00+
*       -1.225458606E+03               0
GRID*               7105               07.3233142236E+01-8.738569165E+00+
*       -1.235928369E+03               0
GRID*               7106               07.3245873137E+01-8.761692775E+00+
*       -1.246398132E+03               0
GRID*               7107               07.3258604038E+01-8.784816385E+00+
*       -1.256867895E+03               0
GRID*               7108               07.3271334939E+01-8.807939996E+00+
*       -1.267337658E+03               0
GRID*               7109               07.3284065840E+01-8.831063606E+00+
*       -1.277807420E+03               0
GRID*               7110               07.3296796742E+01-8.854187216E+00+
*       -1.288277183E+03               0
GRID*               7111               07.3309527643E+01-8.877310826E+00+
*       -1.298746946E+03               0
GRID*               7112               07.3322258544E+01-8.900434437E+00+
*       -1.309216709E+03               0
GRID*               7113               07.3334989445E+01-8.923558047E+00+
*       -1.319686472E+03               0
GRID*               7114               07.3347720346E+01-8.946681657E+00+
*       -1.330156235E+03               0
GRID*               7115               07.3360451247E+01-8.969805268E+00+
*       -1.340625998E+03               0
GRID*               7116               07.3373182148E+01-8.992928878E+00+
*       -1.351095761E+03               0
GRID*               7117               07.3385913049E+01-9.016052488E+00+
*       -1.361565524E+03               0
GRID*               7118               07.3398643950E+01-9.039176098E+00+
*       -1.372035287E+03               0
GRID*               7119               07.3411374852E+01-9.062299709E+00+
*       -1.382505050E+03               0
GRID*               7120               07.3424105753E+01-9.085423319E+00+
*       -1.392974812E+03               0
GRID*               7121               07.3436836654E+01-9.108546929E+00+
*       -1.403444575E+03               0
GRID*               7122               07.3449567555E+01-9.131670540E+00+
*       -1.413914338E+03               0
GRID*               7123               07.3462298456E+01-9.154794150E+00+
*       -1.424384101E+03               0
GRID*               7124               07.3475029357E+01-9.177917760E+00+
*       -1.434853864E+03               0
GRID*               7125               07.3487760258E+01-9.201041370E+00+
*       -1.445323627E+03               0
GRID*               7126               07.3500491159E+01-9.224164981E+00+
*       -1.455793390E+03               0
GRID*               7127               07.3513222061E+01-9.247288591E+00+
*       -1.466263153E+03               0
GRID*               7128               07.3525952962E+01-9.270412201E+00+
*       -1.476732916E+03               0
GRID*               7129               07.3538683863E+01-9.293535812E+00+
*       -1.487202679E+03               0
GRID*               7130               07.3551414764E+01-9.316659422E+00+
*       -1.497672441E+03               0
GRID*               7131               07.3564145665E+01-9.339783032E+00+
*       -1.508142204E+03               0
GRID*               7132               07.3576876566E+01-9.362906642E+00+
*       -1.518611967E+03               0
GRID*               7133               07.3589607467E+01-9.386030253E+00+
*       -1.529081730E+03               0
GRID*               7134               07.3602338368E+01-9.409153863E+00+
*       -1.539551493E+03               0
GRID*               7135               07.3615069269E+01-9.432277473E+00+
*       -1.550021256E+03               0
GRID*               7136               07.3627800171E+01-9.455401084E+00+
*       -1.560491019E+03               0
GRID*               7137               07.3640531072E+01-9.478524694E+00+
*       -1.570960782E+03               0
GRID*               7138               07.3653261973E+01-9.501648304E+00+
*       -1.581430545E+03               0
GRID*               7139               07.3665992874E+01-9.524771914E+00+
*       -1.591900308E+03               0
GRID*               7140               07.3678723775E+01-9.547895525E+00+
*       -1.602370071E+03               0
GRID*               7141               07.3691454676E+01-9.571019135E+00+
*       -1.612839833E+03               0
GRID*               7142               07.3704185577E+01-9.594142745E+00+
*       -1.623309596E+03               0
GRID*               7143               07.3716916478E+01-9.617266356E+00+
*       -1.633779359E+03               0
GRID*               7144               07.3729647379E+01-9.640389966E+00+
*       -1.644249122E+03               0
GRID*               7145               07.3742378281E+01-9.663513576E+00+
*       -1.654718885E+03               0
GRID*               7146               07.3755109182E+01-9.686637186E+00+
*       -1.665188648E+03               0
GRID*               7147               07.3767840083E+01-9.709760797E+00+
*       -1.675658411E+03               0
GRID*               4836               06.0378645097E+01-9.525472673E+00+
*       -1.675682891E+03               0
GRID*               4837               04.6994311992E+01-9.225223678E+00+
*       -1.675707329E+03               0
GRID*               4838               03.3615881346E+01-8.749142233E+00+
*       -1.675731756E+03               0
GRID*               4839               02.0242216923E+01-8.092764230E+00+
*       -1.675756155E+03               0
GRID*               4840               06.8805023972E+00-7.268467602E+00+
*       -1.675780592E+03               0
GRID*               4841               0-6.461623037E+00-6.211122024E+00+
*       -1.675805278E+03               0
GRID*               4842               0-1.980277660E+01-5.071838035E+00+
*       -1.675829455E+03               0
GRID*               4843               06.0404104979E+01-9.504252331E+00+
*       -1.665237522E+03               0
GRID*               4844               04.7059417722E+01-9.204309260E+00+
*       -1.665286412E+03               0
GRID*               4845               03.3720845138E+01-8.729808078E+00+
*       -1.665335309E+03               0
GRID*               4846               02.0387653586E+01-8.073789424E+00+
*       -1.665384186E+03               0
GRID*               4847               07.0661005269E+00-7.251567818E+00+
*       -1.665433047E+03               0
GRID*               4848               0-6.236433393E+00-6.198533263E+00+
*       -1.665481999E+03               0
GRID*               4849               0-1.953929992E+01-5.061955580E+00+
*       -1.665530205E+03               0
GRID*               4850               06.0430241215E+01-9.482965168E+00+
*       -1.654792198E+03               0
GRID*               4851               04.7125020195E+01-9.183387611E+00+
*       -1.654865511E+03               0
GRID*               4852               03.3826129546E+01-8.710484430E+00+
*       -1.654938822E+03               0
GRID*               4853               02.0532906561E+01-8.054811906E+00+
*       -1.655012100E+03               0
GRID*               4854               07.2510985485E+00-7.234636411E+00+
*       -1.655085306E+03               0
GRID*               4855               0-6.012211501E+00-6.185858170E+00+
*       -1.655158484E+03               0
GRID*               4856               0-1.927640476E+01-5.052032134E+00+
*       -1.655230738E+03               0
GRID*               4857               06.0456689337E+01-9.461611389E+00+
*       -1.644346890E+03               0
GRID*               4858               04.7190919315E+01-9.162451589E+00+
*       -1.644444612E+03               0
GRID*               4859               03.3931581286E+01-8.691165329E+00+
*       -1.644542302E+03               0
GRID*               4860               02.0678055005E+01-8.035835755E+00+
*       -1.644639935E+03               0
GRID*               4861               07.4357387720E+00-7.217689683E+00+
*       -1.644737444E+03               0
GRID*               4862               0-5.788521481E+00-6.173126121E+00+
*       -1.644834827E+03               0
GRID*               4863               0-1.901384565E+01-5.042087618E+00+
*       -1.644931158E+03               0
GRID*               4864               06.0483288451E+01-9.440196010E+00+
*       -1.633901588E+03               0
GRID*               4865               04.7256984586E+01-9.141496047E+00+
*       -1.634023712E+03               0
GRID*               4866               03.4037123305E+01-8.671848112E+00+
*       -1.634145761E+03               0
GRID*               4867               02.0823145208E+01-8.016863258E+00+
*       -1.634267721E+03               0
GRID*               4868               07.6201763455E+00-7.200737839E+00+
*       -1.634389507E+03               0
GRID*               4869               0-5.565102284E+00-6.160358123E+00+
*       -1.634511089E+03               0
GRID*               4870               0-1.875147473E+01-5.032133879E+00+
*       -1.634631517E+03               0
GRID*               4871               06.0509963249E+01-9.418726118E+00+
*       -1.623456287E+03               0
GRID*               4872               04.7323140784E+01-9.120517443E+00+
*       -1.623602808E+03               0
GRID*               4873               03.4142715023E+01-8.652531680E+00+
*       -1.623749205E+03               0
GRID*               4874               02.0968204741E+01-7.997895685E+00+
*       -1.623895477E+03               0
GRID*               4875               07.8045033999E+00-7.183786696E+00+
*       -1.624041528E+03               0
GRID*               4876               0-5.341827017E+00-6.147565734E+00+
*       -1.624187304E+03               0
GRID*               4877               0-1.848920693E+01-5.022177588E+00+
*       -1.624331843E+03               0
GRID*               4878               06.0536676980E+01-9.397209772E+00+
*       -1.613010988E+03               0
GRID*               4879               04.7389346664E+01-9.099513282E+00+
*       -1.613181903E+03               0
GRID*               4880               03.4248334650E+01-8.633215723E+00+
*       -1.613352640E+03               0
GRID*               4881               02.1113249482E+01-7.978933668E+00+
*       -1.613523216E+03               0
GRID*               4882               07.9887723765E+00-7.166839318E+00+
*       -1.613693523E+03               0
GRID*               4883               0-5.118626523E+00-6.134755239E+00+
*       -1.613863493E+03               0
GRID*               4884               0-1.822699453E+01-5.012222356E+00+
*       -1.614032152E+03               0
GRID*               4885               06.0563411157E+01-9.375655536E+00+
*       -1.602565688E+03               0
GRID*               4886               04.7455580116E+01-9.078481718E+00+
*       -1.602760996E+03               0
GRID*               4887               03.4353970326E+01-8.613900336E+00+
*       -1.602956071E+03               0
GRID*               4888               02.1258288121E+01-7.959977452E+00+
*       -1.603150946E+03               0
GRID*               4889               08.1730122081E+00-7.149897160E+00+
*       -1.603345506E+03               0
GRID*               4890               0-4.895463309E+00-6.121930041E+00+
*       -1.603539669E+03               0
GRID*               4891               0-1.796481119E+01-5.002270042E+00+
*       -1.603732451E+03               0
GRID*               4892               06.0590156248E+01-9.354072255E+00+
*       -1.592120389E+03               0
GRID*               4893               04.7521829407E+01-9.057421321E+00+
*       -1.592340089E+03               0
GRID*               4894               03.4459615503E+01-8.594585820E+00+
*       -1.592559500E+03               0
GRID*               4895               02.1403325149E+01-7.941027060E+00+
*       -1.592778672E+03               0
GRID*               4896               08.3572384236E+00-7.132960766E+00+
*       -1.592997482E+03               0
GRID*               4897               0-4.672317296E+00-6.109091956E+00+
*       -1.593215837E+03               0
GRID*               4898               0-1.770264263E+01-4.992321523E+00+
*       -1.593432745E+03               0
GRID*               4899               06.0616907202E+01-9.332468956E+00+
*       -1.581675091E+03               0
GRID*               4900               04.7588088346E+01-9.036330939E+00+
*       -1.581919183E+03               0
GRID*               4901               03.4565266506E+01-8.575272576E+00+
*       -1.582162929E+03               0
GRID*               4902               02.1548362731E+01-7.922082395E+00+
*       -1.582406396E+03               0
GRID*               4903               08.5414591400E+00-7.116030197E+00+
*       -1.582649455E+03               0
GRID*               4904               0-4.449177910E+00-6.096241940E+00+
*       -1.582892002E+03               0
GRID*               4905               0-1.744048119E+01-4.982377142E+00+
*       -1.583133037E+03               0
GRID*               4906               06.0643661244E+01-9.310854795E+00+
*       -1.571229793E+03               0
GRID*               4907               04.7654353681E+01-9.015209629E+00+
*       -1.571498277E+03               0
GRID*               4908               03.4670921245E+01-8.555961051E+00+
*       -1.571766358E+03               0
GRID*               4909               02.1693401823E+01-7.903143308E+00+
*       -1.572034120E+03               0
GRID*               4910               08.7256784909E+00-7.099105267E+00+
*       -1.572301428E+03               0
GRID*               4911               0-4.226039690E+00-6.083380480E+00+
*       -1.572568167E+03               0
GRID*               4912               0-1.717832286E+01-4.972436954E+00+
*       -1.572833328E+03               0
GRID*               4913               06.0670416754E+01-9.289239032E+00+
*       -1.560784495E+03               0
GRID*               4914               04.7720623713E+01-8.994056611E+00+
*       -1.561077373E+03               0
GRID*               4915               03.4776578512E+01-8.536651710E+00+
*       -1.561369788E+03               0
GRID*               4916               02.1838442801E+01-7.884209628E+00+
*       -1.561661846E+03               0
GRID*               4917               08.9098985315E+00-7.082185673E+00+
*       -1.561953401E+03               0
GRID*               4918               0-4.002899880E+00-6.070507822E+00+
*       -1.562244331E+03               0
GRID*               4919               0-1.691616553E+01-4.962500863E+00+
*       -1.562533619E+03               0
GRID*               4920               06.0697172707E+01-9.267631018E+00+
*       -1.550339199E+03               0
GRID*               4921               04.7786897566E+01-8.972871240E+00+
*       -1.550656469E+03               0
GRID*               4922               03.4882237605E+01-8.517345021E+00+
*       -1.550973219E+03               0
GRID*               4923               02.1983485784E+01-7.865281182E+00+
*       -1.551289572E+03               0
GRID*               4924               09.0941202651E+00-7.065271065E+00+
*       -1.551605376E+03               0
GRID*               4925               0-3.779757122E+00-6.057624080E+00+
*       -1.551920497E+03               0
GRID*               4926               0-1.665400816E+01-4.952568702E+00+
*       -1.552233910E+03               0
GRID*               4927               06.0723928379E+01-9.246040192E+00+
*       -1.539893902E+03               0
GRID*               4928               04.7853174796E+01-8.951652994E+00+
*       -1.540235567E+03               0
GRID*               4929               03.4987898111E+01-8.498041447E+00+
*       -1.540576652E+03               0
GRID*               4930               02.2128530797E+01-7.846357805E+00+
*       -1.540917301E+03               0
GRID*               4931               09.2783441801E+00-7.048361086E+00+
*       -1.541257353E+03               0
GRID*               4932               0-3.556610768E+00-6.044729308E+00+
*       -1.541596664E+03               0
GRID*               4933               0-1.639185019E+01-4.942640269E+00+
*       -1.541934203E+03               0
GRID*               4934               06.0750683198E+01-9.224476075E+00+
*       -1.529448606E+03               0
GRID*               4935               04.7919455184E+01-8.930401465E+00+
*       -1.529814666E+03               0
GRID*               4936               03.5093559782E+01-8.478741444E+00+
*       -1.530180086E+03               0
GRID*               4937               02.2273577836E+01-7.827439342E+00+
*       -1.530545031E+03               0
GRID*               4938               09.4625705217E+00-7.031455385E+00+
*       -1.530909331E+03               0
GRID*               4939               0-3.333460514E+00-6.031823523E+00+
*       -1.531272832E+03               0
GRID*               4940               0-1.612969136E+01-4.932715350E+00+
*       -1.531634496E+03               0
GRID*               4941               06.0777436667E+01-9.202948273E+00+
*       -1.519003311E+03               0
GRID*               4942               04.7985738630E+01-8.909116343E+00+
*       -1.519393766E+03               0
GRID*               4943               03.5199222466E+01-8.459445458E+00+
*       -1.519783522E+03               0
GRID*               4944               02.2418626902E+01-7.808525650E+00+
*       -1.520172763E+03               0
GRID*               4945               09.6467994246E+00-7.014553624E+00+
*       -1.520561311E+03               0
GRID*               4946               0-3.110306224E+00-6.018906730E+00+
*       -1.520949002E+03               0
GRID*               4947               0-1.586753153E+01-4.922793730E+00+
*       -1.521334789E+03               0
GRID*               4948               06.0804188325E+01-9.181466474E+00+
*       -1.508558016E+03               0
GRID*               4949               04.8052025090E+01-8.887797422E+00+
*       -1.508972868E+03               0
GRID*               4950               03.5304911420E+01-8.440102860E+00+
*       -1.509386960E+03               0
GRID*               4951               02.2563678000E+01-7.789616598E+00+
*       -1.509800498E+03               0
GRID*               4952               09.8310309753E+00-6.997655487E+00+
*       -1.510213293E+03               0
GRID*               4953               0-2.887147841E+00-6.005978924E+00+
*       -1.510625173E+03               0
GRID*               4954               0-1.560537061E+01-4.912875197E+00+
*       -1.511035084E+03               0
GRID*               4955               06.0830937727E+01-9.160040455E+00+
*       -1.498112722E+03               0
GRID*               4956               04.8118314551E+01-8.866444587E+00+
*       -1.498551971E+03               0
GRID*               4957               03.5410612529E+01-8.420668660E+00+
*       -1.498990401E+03               0
GRID*               4958               02.2708731147E+01-7.770712069E+00+
*       -1.499428234E+03               0
GRID*               4959               01.0015265239E+01-6.980760670E+00+
*       -1.499865277E+03               0
GRID*               4960               0-2.663985338E+00-5.993040098E+00+
*       -1.500301346E+03               0
GRID*               4961               0-1.534320857E+01-4.902959546E+00+
*       -1.500735379E+03               0
GRID*               4962               06.0857684431E+01-9.138680075E+00+
*       -1.487667428E+03               0
GRID*               4963               04.8184607009E+01-8.845057813E+00+
*       -1.488131075E+03               0
GRID*               4964               03.5516323336E+01-8.401161765E+00+
*       -1.488593844E+03               0
GRID*               4965               02.2853786362E+01-7.751811956E+00+
*       -1.489055972E+03               0
GRID*               4966               01.0199502274E+01-6.963868892E+00+
*       -1.489517263E+03               0
GRID*               4967               0-2.440818706E+00-5.980090241E+00+
*       -1.489977521E+03               0
GRID*               4968               0-1.508104536E+01-4.893046581E+00+
*       -1.490435676E+03               0
GRID*               4969               06.0884427998E+01-9.117395285E+00+
*       -1.477222135E+03               0
GRID*               4970               04.8250902465E+01-8.823637164E+00+
*       -1.477710181E+03               0
GRID*               4971               03.5622042135E+01-8.381599436E+00+
*       -1.478197288E+03               0
GRID*               4972               02.2998843668E+01-7.732916163E+00+
*       -1.478683712E+03               0
GRID*               4973               01.0383742131E+01-6.946979884E+00+
*       -1.479169251E+03               0
GRID*               4974               0-2.217647939E+00-5.967129343E+00+
*       -1.479653697E+03               0
GRID*               4975               0-1.481888096E+01-4.883136110E+00+
*       -1.480135973E+03               0
GRID*               4976               06.0911167986E+01-9.096196125E+00+
*       -1.466776842E+03               0
GRID*               4977               04.8317200920E+01-8.802182789E+00+
*       -1.467289288E+03               0
GRID*               4978               03.5727767431E+01-8.361997277E+00+
*       -1.467800735E+03               0
GRID*               4979               02.3143903090E+01-7.714024605E+00+
*       -1.468311455E+03               0
GRID*               4980               01.0567984859E+01-6.930093397E+00+
*       -1.468821241E+03               0
GRID*               4981               0-1.994473034E+00-5.954157392E+00+
*       -1.469329875E+03               0
GRID*               4982               0-1.455671534E+01-4.873227952E+00+
*       -1.469836271E+03               0
GRID*               4983               06.0937903948E+01-9.075092729E+00+
*       -1.456331549E+03               0
GRID*               4984               04.8383502372E+01-8.780694920E+00+
*       -1.456868396E+03               0
GRID*               4985               03.5833497917E+01-8.342369277E+00+
*       -1.457404183E+03               0
GRID*               4986               02.3288964650E+01-7.695137209E+00+
*       -1.457939199E+03               0
GRID*               4987               01.0752230506E+01-6.913209191E+00+
*       -1.458473233E+03               0
GRID*               4988               0-1.771293990E+00-5.941174375E+00+
*       -1.459006055E+03               0
GRID*               4989               0-1.429454850E+01-4.863321932E+00+
*       -1.459536571E+03               0
GRID*               4990               06.0964635434E+01-9.054095323E+00+
*       -1.445886257E+03               0
GRID*               4991               04.8449806815E+01-8.759173872E+00+
*       -1.446447506E+03               0
GRID*               4992               03.5939232455E+01-8.322727851E+00+
*       -1.447007634E+03               0
GRID*               4993               02.3434028370E+01-7.676253911E+00+
*       -1.447566945E+03               0
GRID*               4994               01.0936479116E+01-6.896327045E+00+
*       -1.448125227E+03               0
GRID*               4995               0-1.548110805E+00-5.928180279E+00+
*       -1.448682236E+03               0
GRID*               4996               0-1.403238040E+01-4.853417883E+00+
*       -1.449236871E+03               0
GRID*               4997               06.0991361988E+01-9.033214232E+00+
*       -1.435440965E+03               0
GRID*               4998               04.8516114240E+01-8.737620037E+00+
*       -1.436026617E+03               0
GRID*               4999               03.6044970060E+01-8.303083879E+00+
*       -1.436611086E+03               0
GRID*               5000               02.3579094271E+01-7.657374659E+00+
*       -1.437194693E+03               0
GRID*               5001               01.1120730729E+01-6.879446746E+00+
*       -1.437777223E+03               0
GRID*               5002               0-1.324923475E+00-5.915175092E+00+
*       -1.438358419E+03               0
GRID*               5003               0-1.377021102E+01-4.843515643E+00+
*       -1.438937171E+03               0
GRID*               5004               06.1018083151E+01-9.012459883E+00+
*       -1.424995674E+03               0
GRID*               5005               04.8582424633E+01-8.716033892E+00+
*       -1.425605729E+03               0
GRID*               5006               03.6150709892E+01-8.283446741E+00+
*       -1.426214540E+03               0
GRID*               5007               02.3724162371E+01-7.638499409E+00+
*       -1.426822444E+03               0
GRID*               5008               01.1304985385E+01-6.862568097E+00+
*       -1.427429221E+03               0
GRID*               5009               0-1.101731999E+00-5.902158798E+00+
*       -1.428034604E+03               0
GRID*               5010               0-1.350804035E+01-4.833615060E+00+
*       -1.428637473E+03               0
GRID*               5011               06.1044798456E+01-8.991842803E+00+
*       -1.414550382E+03               0
GRID*               5012               04.8648737978E+01-8.694415988E+00+
*       -1.415184842E+03               0
GRID*               5013               03.6256451243E+01-8.263824350E+00+
*       -1.415817995E+03               0
GRID*               5014               02.3869232685E+01-7.619628129E+00+
*       -1.416450196E+03               0
GRID*               5015               01.1489243121E+01-6.845690910E+00+
*       -1.417081221E+03               0
GRID*               5016               0-8.785363748E-01-5.889131383E+00+
*       -1.417710790E+03               0
GRID*               5017               0-1.324586837E+01-4.823715986E+00+
*       -1.418337776E+03               0
GRID*               5018               06.1071507432E+01-8.971373624E+00+
*       -1.404105091E+03               0
GRID*               5019               04.8715054252E+01-8.672766956E+00+
*       -1.404763957E+03               0
GRID*               5020               03.6362193532E+01-8.244223186E+00+
*       -1.405421452E+03               0
GRID*               5021               02.4014305228E+01-7.600760796E+00+
*       -1.406077950E+03               0
GRID*               5022               01.1673503971E+01-6.828815008E+00+
*       -1.406733223E+03               0
GRID*               5023               0-6.553366005E-01-5.876092833E+00+
*       -1.407386978E+03               0
GRID*               5024               0-1.298369507E+01-4.813818279E+00+
*       -1.408038080E+03               0
GRID*               5025               06.1098209602E+01-8.951063089E+00+
*       -1.393659801E+03               0
GRID*               5026               04.8781373429E+01-8.651087505E+00+
*       -1.394343073E+03               0
GRID*               5027               03.6467936300E+01-8.224648327E+00+
*       -1.395024911E+03               0
GRID*               5028               02.4159380011E+01-7.581897398E+00+
*       -1.395705706E+03               0
GRID*               5029               01.1857767967E+01-6.811940224E+00+
*       -1.396385227E+03               0
GRID*               5030               0-4.321326742E-01-5.863043131E+00+
*       -1.397063168E+03               0
GRID*               5031               0-1.272152042E+01-4.803921806E+00+
*       -1.397738384E+03               0
GRID*               5032               06.1124904484E+01-8.930922051E+00+
*       -1.383214510E+03               0
GRID*               5033               04.8847695480E+01-8.629378423E+00+
*       -1.383922191E+03               0
GRID*               5034               03.6573679200E+01-8.205103476E+00+
*       -1.384628371E+03               0
GRID*               5035               02.4304457043E+01-7.563037930E+00+
*       -1.385333465E+03               0
GRID*               5036               01.2042035138E+01-6.795066401E+00+
*       -1.386037233E+03               0
GRID*               5037               0-2.089245939E-01-5.849982262E+00+
*       -1.386739359E+03               0
GRID*               5038               0-1.245934441E+01-4.794026438E+00+
*       -1.387438690E+03               0
GRID*               5039               06.1151591591E+01-8.910961480E+00+
*       -1.372769220E+03               0
GRID*               5040               04.8914020369E+01-8.607640573E+00+
*       -1.373501310E+03               0
GRID*               5041               03.6679421998E+01-8.185590988E+00+
*       -1.374231833E+03               0
GRID*               5042               02.4449536332E+01-7.544182400E+00+
*       -1.374961225E+03               0
GRID*               5043               01.2226305513E+01-6.778193392E+00+
*       -1.375689241E+03               0
GRID*               5044               01.4287642044E-02-5.836910209E+00+
*       -1.376415552E+03               0
GRID*               5045               0-1.219716703E+01-4.784132050E+00+
*       -1.377138996E+03               0
GRID*               5046               06.1178270426E+01-8.891192463E+00+
*       -1.362323929E+03               0
GRID*               5047               04.8980348060E+01-8.585874901E+00+
*       -1.363080430E+03               0
GRID*               5048               03.6785164566E+01-8.166111898E+00+
*       -1.363835296E+03               0
GRID*               5049               02.4594617881E+01-7.525330824E+00+
*       -1.364588987E+03               0
GRID*               5050               01.2410579116E+01-6.761321056E+00+
*       -1.365341251E+03               0
GRID*               5051               02.3750403523E-01-5.823826955E+00+
*       -1.366091747E+03               0
GRID*               5052               0-1.193498826E+01-4.774238525E+00+
*       -1.366839304E+03               0
GRID*               5053               06.1204940490E+01-8.871626213E+00+
*       -1.351878639E+03               0
GRID*               5054               04.9046678509E+01-8.564082428E+00+
*       -1.352659551E+03               0
GRID*               5055               03.6890906880E+01-8.146665946E+00+
*       -1.353438761E+03               0
GRID*               5056               02.4739701695E+01-7.506483228E+00+
*       -1.354216752E+03               0
GRID*               5057               01.2594855971E+01-6.744449264E+00+
*       -1.354993263E+03               0
GRID*               5058               04.6072458710E-01-5.810732483E+00+
*       -1.355767943E+03               0
GRID*               5059               0-1.167280809E+01-4.764345751E+00+
*       -1.356539612E+03               0
GRID*               5060               06.1231601275E+01-8.852274065E+00+
*       -1.341433349E+03               0
GRID*               5061               04.9113011670E+01-8.542264256E+00+
*       -1.342238674E+03               0
GRID*               5062               03.6996649013E+01-8.127251597E+00+
*       -1.343042228E+03               0
GRID*               5063               02.4884787772E+01-7.487639649E+00+
*       -1.343844518E+03               0
GRID*               5064               01.2779136101E+01-6.727577893E+00+
*       -1.344645277E+03               0
GRID*               5065               06.8394929897E-01-5.797626776E+00+
*       -1.345444141E+03               0
GRID*               5066               0-1.141062651E+01-4.754453620E+00+
*       -1.346239921E+03               0
GRID*               5067               06.1258252268E+01-8.833147490E+00+
*       -1.330988059E+03               0
GRID*               5068               04.9179347492E+01-8.520421569E+00+
*       -1.331817798E+03               0
GRID*               5069               03.7102391140E+01-8.107866063E+00+
*       -1.332645696E+03               0
GRID*               5070               02.5029876112E+01-7.468800132E+00+
*       -1.333472286E+03               0
GRID*               5071               01.2963419525E+01-6.710706827E+00+
*       -1.334297293E+03               0
GRID*               5072               09.0717817199E-01-5.784509816E+00+
*       -1.335120341E+03               0
GRID*               5073               0-1.114844350E+01-4.744562030E+00+
*       -1.335940231E+03               0
GRID*               5074               06.1284987217E+01-8.813978349E+00+
*       -1.320542771E+03               0
GRID*               5075               04.9245685921E+01-8.498555629E+00+
*       -1.321396923E+03               0
GRID*               5076               03.7208133527E+01-8.088505325E+00+
*       -1.322249165E+03               0
GRID*               5077               02.5174966710E+01-7.449964733E+00+
*       -1.323100057E+03               0
GRID*               5078               01.3147706261E+01-6.693835960E+00+
*       -1.323949311E+03               0
GRID*               5079               01.1304112072E+00-5.771381584E+00+
*       -1.324796542E+03               0
GRID*               5080               0-1.088625905E+01-4.734670882E+00+
*       -1.325640542E+03               0
GRID*               5081               06.1311770241E+01-8.794156470E+00+
*       -1.310097488E+03               0
GRID*               5082               04.9312026896E+01-8.476667784E+00+
*       -1.310976050E+03               0
GRID*               5083               03.7313876535E+01-8.069164148E+00+
*       -1.311852637E+03               0
GRID*               5084               02.5320059559E+01-7.431133517E+00+
*       -1.312727829E+03               0
GRID*               5085               01.3331996326E+01-6.676965191E+00+
*       -1.313601331E+03               0
GRID*               5086               01.3536484053E+00-5.758242063E+00+
*       -1.314472745E+03               0
GRID*               5087               0-1.062407316E+01-4.724780083E+00+
*       -1.315340854E+03               0
GRID*               5088               06.1338575527E+01-8.773709369E+00+
*       -1.299652208E+03               0
GRID*               5089               04.9378370355E+01-8.454759465E+00+
*       -1.300555178E+03               0
GRID*               5090               03.7419620617E+01-8.049836102E+00+
*       -1.301456110E+03               0
GRID*               5091               02.5465154652E+01-7.412306559E+00+
*       -1.302355603E+03               0
GRID*               5092               01.3516289734E+01-6.660094427E+00+
*       -1.303253353E+03               0
GRID*               5093               01.5768897672E+00-5.745091233E+00+
*       -1.304148950E+03               0
GRID*               5094               0-1.036188581E+01-4.714889544E+00+
*       -1.305041166E+03               0
GRID*               5095               06.1365401207E+01-8.752687456E+00+
*       -1.289206932E+03               0
GRID*               5096               04.9444716229E+01-8.432832189E+00+
*       -1.290134307E+03               0
GRID*               5097               03.7525366314E+01-8.030513571E+00+
*       -1.291059584E+03               0
GRID*               5098               02.5610251977E+01-7.393483946E+00+
*       -1.291983379E+03               0
GRID*               5099               01.3700586498E+01-6.643223582E+00+
*       -1.292905378E+03               0
GRID*               5100               01.8001352932E+00-5.731929075E+00+
*       -1.293825156E+03               0
GRID*               5101               0-1.009969699E+01-4.704999182E+00+
*       -1.294741480E+03               0
GRID*               5102               06.1392245547E+01-8.731138193E+00+
*       -1.278761659E+03               0
GRID*               5103               04.9511064446E+01-8.410887559E+00+
*       -1.279713437E+03               0
GRID*               5104               03.7631114255E+01-8.011187770E+00+
*       -1.280663060E+03               0
GRID*               5105               02.5755351521E+01-7.374665773E+00+
*       -1.281611157E+03               0
GRID*               5106               01.3884886631E+01-6.626352577E+00+
*       -1.282557404E+03               0
GRID*               5107               02.0233849837E+00-5.718755571E+00+
*       -1.283501364E+03               0
GRID*               5108               0-9.837506701E+00-4.695108916E+00+
*       -1.284441795E+03               0
GRID*               5109               06.1419106934E+01-8.709106334E+00+
*       -1.268316390E+03               0
GRID*               5110               04.9577414930E+01-8.388927267E+00+
*       -1.269292569E+03               0
GRID*               5111               03.7736865157E+01-7.991848756E+00+
*       -1.270266538E+03               0
GRID*               5112               02.5900453269E+01-7.355852146E+00+
*       -1.271238937E+03               0
GRID*               5113               01.4069190142E+01-6.609481338E+00+
*       -1.272209432E+03               0
GRID*               5114               02.2466388388E+00-5.705570700E+00+
*       -1.273177573E+03               0
GRID*               5115               0-9.575314926E+00-4.685218669E+00+
*       -1.274142110E+03               0
GRID*               5116               06.1445983868E+01-8.686634151E+00+
*       -1.257871123E+03               0
GRID*               5117               04.9643767598E+01-8.366953098E+00+
*       -1.258871702E+03               0
GRID*               5118               03.7842619822E+01-7.972485435E+00+
*       -1.259870018E+03               0
GRID*               5119               02.6045557202E+01-7.337043182E+00+
*       -1.260866720E+03               0
GRID*               5120               01.4253497039E+01-6.592609799E+00+
*       -1.261861462E+03               0
GRID*               5121               02.4698968584E+00-5.692374445E+00+
*       -1.262853785E+03               0
GRID*               5122               0-9.313121660E+00-4.675328368E+00+
*       -1.263842426E+03               0
GRID*               5123               06.1472874947E+01-8.663761611E+00+
*       -1.247425859E+03               0
GRID*               5124               04.9710122364E+01-8.344966928E+00+
*       -1.248450836E+03               0
GRID*               5125               03.7948379136E+01-7.953085573E+00+
*       -1.249473500E+03               0
GRID*               5126               02.6190663301E+01-7.318239007E+00+
*       -1.250494504E+03               0
GRID*               5127               01.4437807329E+01-6.575737901E+00+
*       -1.251513494E+03               0
GRID*               5128               02.6931590423E+00-5.679166784E+00+
*       -1.252529997E+03               0
GRID*               5129               0-9.050926895E+00-4.665437946E+00+
*       -1.253542744E+03               0
GRID*               5130               06.1499778862E+01-8.640526546E+00+
*       -1.236980598E+03               0
GRID*               5131               04.9776479138E+01-8.322970731E+00+
*       -1.238029971E+03               0
GRID*               5132               03.8054144072E+01-7.933635798E+00+
*       -1.239076983E+03               0
GRID*               5133               02.6335771542E+01-7.299439760E+00+
*       -1.240122290E+03               0
GRID*               5134               01.4622121019E+01-6.558865590E+00+
*       -1.241165528E+03               0
GRID*               5135               02.9164253900E+00-5.665947700E+00+
*       -1.242206212E+03               0
GRID*               5136               0-8.788730625E+00-4.655547337E+00+
*       -1.243243062E+03               0
GRID*               5137               06.1526694386E+01-8.616964795E+00+
*       -1.226535338E+03               0
GRID*               5138               04.9842837824E+01-8.300966576E+00+
*       -1.227609108E+03               0
GRID*               5139               03.8159915684E+01-7.914121603E+00+
*       -1.228680469E+03               0
GRID*               5140               02.6480881902E+01-7.280645591E+00+
*       -1.229750078E+03               0
GRID*               5141               01.4806438110E+01-6.541992819E+00+
*       -1.230817564E+03               0
GRID*               5142               03.1396959008E+00-5.652717171E+00+
*       -1.231882428E+03               0
GRID*               5143               0-8.526532845E+00-4.645656480E+00+
*       -1.232943381E+03               0
GRID*               5144               06.1553620368E+01-8.593110330E+00+
*       -1.216090081E+03               0
GRID*               5145               04.9909198320E+01-8.278956634E+00+
*       -1.217188246E+03               0
GRID*               5146               03.8265695112E+01-7.894527347E+00+
*       -1.218283956E+03               0
GRID*               5147               02.6625994351E+01-7.261856658E+00+
*       -1.219377868E+03               0
GRID*               5148               01.4990758607E+01-6.525119546E+00+
*       -1.220469603E+03               0
GRID*               5149               03.3629705736E+00-5.639475179E+00+
*       -1.221558646E+03               0
GRID*               5150               0-8.264333547E+00-4.635765317E+00+
*       -1.222643701E+03               0
GRID*               5151               06.1580555729E+01-8.568995372E+00+
*       -1.205644826E+03               0
GRID*               5152               04.9975560520E+01-8.256943180E+00+
*       -1.206767385E+03               0
GRID*               5153               03.8371458810E+01-7.874851404E+00+
*       -1.207887446E+03               0
GRID*               5154               02.6771108860E+01-7.243073135E+00+
*       -1.209005659E+03               0
GRID*               5155               01.5175082510E+01-6.508245737E+00+
*       -1.210121643E+03               0
GRID*               5156               03.5862494074E+00-5.626221705E+00+
*       -1.211234865E+03               0
GRID*               5157               0-8.002132729E+00-4.625873792E+00+
*       -1.212344022E+03               0
GRID*               5158               06.1607499453E+01-8.544650492E+00+
*       -1.195199573E+03               0
GRID*               5159               05.0041924314E+01-8.234928594E+00+
*       -1.196346525E+03               0
GRID*               5160               03.8477214498E+01-7.855138848E+00+
*       -1.197490937E+03               0
GRID*               5161               02.6916225397E+01-7.224295205E+00+
*       -1.198633453E+03               0
GRID*               5162               01.5359409818E+01-6.491371364E+00+
*       -1.199773685E+03               0
GRID*               5163               03.8095324008E+00-5.612956728E+00+
*       -1.200911086E+03               0
GRID*               5164               0-7.739930384E+00-4.615981855E+00+
*       -1.202044344E+03               0
GRID*               5165               06.1634450587E+01-8.520104697E+00+
*       -1.184754321E+03               0
GRID*               5166               05.0108289583E+01-8.212915367E+00+
*       -1.185925667E+03               0
GRID*               5167               03.8582973823E+01-7.835394287E+00+
*       -1.187094430E+03               0
GRID*               5168               02.7061343925E+01-7.205523063E+00+
*       -1.188261249E+03               0
GRID*               5169               01.5543740530E+01-6.474496403E+00+
*       -1.189425729E+03               0
GRID*               5170               04.0328195520E+00-5.599680230E+00+
*       -1.190587309E+03               0
GRID*               5171               0-7.477726509E+00-4.606089456E+00+
*       -1.191744666E+03               0
GRID*               5172               06.1661408232E+01-8.495385518E+00+
*       -1.174309071E+03               0
GRID*               5173               05.0174656206E+01-8.190906102E+00+
*       -1.175504810E+03               0
GRID*               5174               03.8688736773E+01-7.815617783E+00+
*       -1.176697924E+03               0
GRID*               5175               02.7206464407E+01-7.186756919E+00+
*       -1.177889047E+03               0
GRID*               5176               01.5728074641E+01-6.457620840E+00+
*       -1.179077775E+03               0
GRID*               5177               04.2561108591E+00-5.586392192E+00+
*       -1.180263534E+03               0
GRID*               5178               0-7.215521101E+00-4.596196551E+00+
*       -1.181444990E+03               0
GRID*               5179               06.1688371543E+01-8.470519080E+00+
*       -1.163863822E+03               0
GRID*               5180               05.0241024054E+01-8.168903518E+00+
*       -1.165083954E+03               0
GRID*               5181               03.8794503339E+01-7.795809366E+00+
*       -1.166301421E+03               0
GRID*               5182               02.7351586803E+01-7.167996993E+00+
*       -1.167516846E+03               0
GRID*               5183               01.5912412148E+01-6.440744665E+00+
*       -1.168729823E+03               0
GRID*               5184               04.4794063198E+00-5.573092595E+00+
*       -1.169939760E+03               0
GRID*               5185               0-6.953314156E+00-4.586303098E+00+
*       -1.171145314E+03               0
GRID*               5186               06.1715339723E+01-8.445530171E+00+
*       -1.153418575E+03               0
GRID*               5187               05.0307392992E+01-8.146910456E+00+
*       -1.154663099E+03               0
GRID*               5188               03.8900273514E+01-7.775969040E+00+
*       -1.155904919E+03               0
GRID*               5189               02.7496711068E+01-7.149243519E+00+
*       -1.157144648E+03               0
GRID*               5190               01.6096753042E+01-6.423867875E+00+
*       -1.158381873E+03               0
GRID*               5191               04.7027059318E+00-5.559781421E+00+
*       -1.159615987E+03               0
GRID*               5192               0-6.691105671E+00-4.576409056E+00+
*       -1.160845640E+03               0
GRID*               5193               06.1742312021E+01-8.420442301E+00+
*       -1.142973328E+03               0
GRID*               5194               05.0373762881E+01-8.124929879E+00+
*       -1.144242245E+03               0
GRID*               5195               03.9006047290E+01-7.756096784E+00+
*       -1.145508419E+03               0
GRID*               5196               02.7641837155E+01-7.130496745E+00+
*       -1.146772451E+03               0
GRID*               5197               01.6281097317E+01-6.406990472E+00+
*       -1.148033925E+03               0
GRID*               5198               04.9260096921E+00-5.546458651E+00+
*       -1.149292217E+03               0
GRID*               5199               0-6.428895645E+00-4.566514388E+00+
*       -1.150545966E+03               0
GRID*               5200               06.1769287731E+01-8.395277762E+00+
*       -1.132528082E+03               0
GRID*               5201               05.0440133574E+01-8.102964882E+00+
*       -1.133821393E+03               0
GRID*               5202               03.9111824660E+01-7.736192558E+00+
*       -1.135111921E+03               0
GRID*               5203               02.7786965016E+01-7.111756934E+00+
*       -1.136400256E+03               0
GRID*               5204               01.6465444963E+01-6.390112467E+00+
*       -1.137685979E+03               0
GRID*               5205               05.1493175977E+00-5.533124269E+00+
*       -1.138968447E+03               0
GRID*               5206               0-6.166684076E+00-4.556619061E+00+
*       -1.140246293E+03               0
GRID*               5207               06.1796266187E+01-8.370057675E+00+
*       -1.122082837E+03               0
GRID*               5208               05.0506504917E+01-8.081018689E+00+
*       -1.123400541E+03               0
GRID*               5209               03.9217605620E+01-7.716256306E+00+
*       -1.124715424E+03               0
GRID*               5210               02.7932094598E+01-7.093024361E+00+
*       -1.126028063E+03               0
GRID*               5211               01.6649795968E+01-6.373233878E+00+
*       -1.127338035E+03               0
GRID*               5212               05.3726296451E+00-5.519778256E+00+
*       -1.128644680E+03               0
GRID*               5213               0-5.904470962E+00-4.546723044E+00+
*       -1.129946621E+03               0
GRID*               5214               06.1823246762E+01-8.344802041E+00+
*       -1.111637593E+03               0
GRID*               5215               05.0572876749E+01-8.059094663E+00+
*       -1.112979691E+03               0
GRID*               5216               03.9323390165E+01-7.696287958E+00+
*       -1.114318930E+03               0
GRID*               5217               02.8077225845E+01-7.074299318E+00+
*       -1.115655872E+03               0
GRID*               5218               01.6834150320E+01-6.356354726E+00+
*       -1.116990093E+03               0
GRID*               5219               05.5959458305E+00-5.506420597E+00+
*       -1.118320914E+03               0
GRID*               5220               0-5.642256302E+00-4.536826306E+00+
*       -1.119646950E+03               0
GRID*               5221               06.1850228864E+01-8.319529787E+00+
*       -1.101192349E+03               0
GRID*               5222               05.0639248905E+01-8.037196313E+00+
*       -1.102558842E+03               0
GRID*               5223               03.9429178291E+01-7.676287433E+00+
*       -1.103922437E+03               0
GRID*               5224               02.8222358698E+01-7.055582112E+00+
*       -1.105283683E+03               0
GRID*               5225               01.7018508004E+01-6.339475044E+00+
*       -1.106642153E+03               0
GRID*               5226               05.8192661499E+00-5.493051274E+00+
*       -1.107997150E+03               0
GRID*               5227               0-5.380040096E+00-4.526928823E+00+
*       -1.109347280E+03               0
GRID*               5228               06.1877211938E+01-8.294258801E+00+
*       -1.090747106E+03               0
GRID*               5229               05.0705621209E+01-8.015327291E+00+
*       -1.092137994E+03               0
GRID*               5230               03.9534969992E+01-7.656254644E+00+
*       -1.093525945E+03               0
GRID*               5231               02.8367493095E+01-7.036873065E+00+
*       -1.094911496E+03               0
GRID*               5232               01.7202869006E+01-6.322594869E+00+
*       -1.096294214E+03               0
GRID*               5233               06.0425905988E+00-5.479670274E+00+
*       -1.097673387E+03               0
GRID*               5234               0-5.117822345E+00-4.517030569E+00+
*       -1.099047610E+03               0
GRID*               5235               06.1904195461E+01-8.269005977E+00+
*       -1.080301863E+03               0
GRID*               5236               05.0771993479E+01-7.993491406E+00+
*       -1.081717147E+03               0
GRID*               5237               03.9640765266E+01-7.636189497E+00+
*       -1.083129456E+03               0
GRID*               5238               02.8512628969E+01-7.018172518E+00+
*       -1.084539311E+03               0
GRID*               5239               01.7387233306E+01-6.305714246E+00+
*       -1.085946278E+03               0
GRID*               5240               06.2659191723E+00-5.466277581E+00+
*       -1.087349626E+03               0
GRID*               5241               0-4.855603047E+00-4.507131524E+00+
*       -1.088747942E+03               0
GRID*               5242               06.1931178942E+01-8.243787247E+00+
*       -1.069856621E+03               0
GRID*               5243               05.0838365525E+01-7.971692626E+00+
*       -1.071296301E+03               0
GRID*               5244               03.9746564108E+01-7.616091896E+00+
*       -1.072732968E+03               0
GRID*               5245               02.8657766252E+01-6.999480827E+00+
*       -1.074167127E+03               0
GRID*               5246               01.7571600886E+01-6.288833228E+00+
*       -1.075598344E+03               0
GRID*               5247               06.4892518653E+00-5.452873182E+00+
*       -1.077025867E+03               0
GRID*               5248               0-4.593382205E+00-4.497231667E+00+
*       -1.078448274E+03               0
GRID*               5249               06.1958161919E+01-8.218617616E+00+
*       -1.059411378E+03               0
GRID*               5250               05.0904737150E+01-7.949935083E+00+
*       -1.060875457E+03               0
GRID*               5251               03.9852366513E+01-7.595961746E+00+
*       -1.062336482E+03               0
GRID*               5252               02.8802904869E+01-6.980798367E+00+
*       -1.063794945E+03               0
GRID*               5253               01.7755971724E+01-6.271951876E+00+
*       -1.065250411E+03               0
GRID*               5254               06.7125886720E+00-5.439457063E+00+
*       -1.066702109E+03               0
GRID*               5255               0-4.331159819E+00-4.487330982E+00+
*       -1.068148607E+03               0
GRID*               5256               06.1985143960E+01-8.193511195E+00+
*       -1.048966136E+03               0
GRID*               5257               05.0971108147E+01-7.928223084E+00+
*       -1.050454613E+03               0
GRID*               5258               03.9958172477E+01-7.575798952E+00+
*       -1.051939998E+03               0
GRID*               5259               02.8948044745E+01-6.962125533E+00+
*       -1.053422766E+03               0
GRID*               5260               01.7940345798E+01-6.255070259E+00+
*       -1.054902481E+03               0
GRID*               5261               06.9359295865E+00-5.426029212E+00+
*       -1.056378353E+03               0
GRID*               5262               0-4.068935891E+00-4.477429454E+00+
*       -1.057848941E+03               0
GRID*               5263               06.2012124660E+01-8.168481229E+00+
*       -1.038520894E+03               0
GRID*               5264               05.1037478301E+01-7.906561114E+00+
*       -1.040033770E+03               0
GRID*               5265               04.0063981995E+01-7.555603427E+00+
*       -1.041543516E+03               0
GRID*               5266               02.9093185798E+01-6.943462737E+00+
*       -1.043050587E+03               0
GRID*               5267               01.8124723084E+01-6.238188454E+00+
*       -1.044554552E+03               0
GRID*               5268               07.1592746023E+00-5.412589620E+00+
*       -1.046054598E+03               0
GRID*               5269               0-3.806710422E+00-4.467527070E+00+
*       -1.047549276E+03               0
GRID*               5270               06.2039103639E+01-8.143540127E+00+
*       -1.028075651E+03               0
GRID*               5271               05.1103847386E+01-7.884953844E+00+
*       -1.029612929E+03               0
GRID*               5272               04.0169795061E+01-7.535375089E+00+
*       -1.031147035E+03               0
GRID*               5273               02.9238327943E+01-6.924810414E+00+
*       -1.032678411E+03               0
GRID*               5274               01.8309103553E+01-6.221306546E+00+
*       -1.034206625E+03               0
GRID*               5275               07.3826237124E+00-5.399138276E+00+
*       -1.035730845E+03               0
GRID*               5276               0-3.544483416E+00-4.457623820E+00+
*       -1.037249612E+03               0
GRID*               5277               06.2066080545E+01-8.118699489E+00+
*       -1.017630409E+03               0
GRID*               5278               05.1170215171E+01-7.863406141E+00+
*       -1.019192088E+03               0
GRID*               5279               04.0275611669E+01-7.515113867E+00+
*       -1.020750556E+03               0
GRID*               5280               02.9383471090E+01-6.906169019E+00+
*       -1.022306237E+03               0
GRID*               5281               01.8493487178E+01-6.204424631E+00+
*       -1.023858701E+03               0
GRID*               5282               07.6059769094E+00-5.385675171E+00+
*       -1.025407094E+03               0
GRID*               5283               0-3.282254874E+00-4.447719695E+00+
*       -1.026949949E+03               0
GRID*               5284               06.2093055046E+01-8.093970133E+00+
*       -1.007185166E+03               0
GRID*               5285               05.1236581409E+01-7.841923075E+00+
*       -1.008771249E+03               0
GRID*               5286               04.0381431812E+01-7.494819701E+00+
*       -1.010354079E+03               0
GRID*               5287               02.9528615145E+01-6.887539029E+00+
*       -1.011934064E+03               0
GRID*               5288               01.8677873929E+01-6.187542812E+00+
*       -1.013510778E+03               0
GRID*               5289               07.8293341856E+00-5.372200299E+00+
*       -1.015083344E+03               0
GRID*               5290               0-3.020024800E+00-4.437814689E+00+
*       -1.016650287E+03               0
GRID*               5291               06.2120026838E+01-8.069362115E+00+
*       -9.967399236E+02               0
GRID*               5292               05.1302945848E+01-7.820509925E+00+
*       -9.983504103E+02               0
GRID*               5293               04.0487255481E+01-7.474492548E+00+
*       -9.999576031E+02               0
GRID*               5294               02.9673858911E+01-6.868320018E+00+
*       -1.001561897E+03               0
GRID*               5295               01.8862263772E+01-6.170661203E+00+
*       -1.003162857E+03               0
GRID*               5296               08.0526955323E+00-5.358713654E+00+
*       -1.004759596E+03               0
GRID*               5297               0-2.757793197E+00-4.427908796E+00+
*       -1.006350625E+03               0
GRID*               5298               06.2146995636E+01-8.044884760E+00+
*       -9.862946804E+02               0
GRID*               5299               05.1369308222E+01-7.799172195E+00+
*       -9.879295727E+02               0
GRID*               5300               04.0593082668E+01-7.454132381E+00+
*       -9.895611293E+02               0
GRID*               5301               02.9819241999E+01-6.847437875E+00+
*       -9.911897395E+02               0
GRID*               5302               01.9046656672E+01-6.153779928E+00+
*       -9.928149376E+02               0
GRID*               5303               08.2760609408E+00-5.345215232E+00+
*       -9.944358489E+02               0
GRID*               5304               0-2.495560069E+00-4.418002015E+00+
*       -9.960509643E+02               0
GRID*               5305               06.2173961177E+01-8.020546678E+00+
*       -9.758494369E+02               0
GRID*               5306               05.1435668255E+01-7.777915616E+00+
*       -9.775087361E+02               0
GRID*               5307               04.0698913363E+01-7.433739193E+00+
*       -9.791646571E+02               0
GRID*               5308               02.9964740620E+01-6.825050161E+00+
*       -9.808175905E+02               0
GRID*               5309               01.9231052593E+01-6.136899122E+00+
*       -9.824670203E+02               0
GRID*               5310               08.4994304016E+00-5.331705030E+00+
*       -9.841121037E+02               0
GRID*               5311               0-2.233325420E+00-4.408094345E+00+
*       -9.857513044E+02               0
GRID*               5312               06.2200923219E+01-7.996355788E+00+
*       -9.654041930E+02               0
GRID*               5313               05.1502025659E+01-7.756746162E+00+
*       -9.670879004E+02               0
GRID*               5314               04.0804747553E+01-7.413313002E+00+
*       -9.687681867E+02               0
GRID*               5315               03.0110341459E+01-6.801335846E+00+
*       -9.704454493E+02               0
GRID*               5316               01.9415451495E+01-6.120018929E+00+
*       -9.721191049E+02               0
GRID*               5317               08.7228039045E+00-5.318183049E+00+
*       -9.737883601E+02               0
GRID*               5318               0-1.971089255E+00-4.398185788E+00+
*       -9.754516453E+02               0
GRID*               5319               06.2227881540E+01-7.972319340E+00+
*       -9.549589487E+02               0
GRID*               5320               05.1568380133E+01-7.735670061E+00+
*       -9.566670656E+02               0
GRID*               5321               04.0910585225E+01-7.392853851E+00+
*       -9.583717180E+02               0
GRID*               5322               03.0256032000E+01-6.776463145E+00+
*       -9.600733150E+02               0
GRID*               5323               01.9599853336E+01-6.103139506E+00+
*       -9.617711914E+02               0
GRID*               5324               08.9461814390E+00-5.304649289E+00+
*       -9.634646181E+02               0
GRID*               5325               0-1.708851579E+00-4.388276345E+00+
*       -9.651519871E+02               0
GRID*               5326               06.2254835936E+01-7.948443935E+00+
*       -9.445137039E+02               0
GRID*               5327               05.1634731365E+01-7.714693801E+00+
*       -9.462462317E+02               0
GRID*               5328               04.1016426365E+01-7.372361811E+00+
*       -9.479752509E+02               0
GRID*               5329               03.0401800494E+01-6.750590006E+00+
*       -9.497011870E+02               0
GRID*               5330               01.9784258073E+01-6.086261022E+00+
*       -9.514232797E+02               0
GRID*               5331               09.1695629937E+00-5.291103755E+00+
*       -9.531408776E+02               0
GRID*               5332               0-1.446612396E+00-4.378366023E+00+
*       -9.548523298E+02               0
GRID*               5333               06.2281786224E+01-7.924735543E+00+
*       -9.340684586E+02               0
GRID*               5334               05.1701079027E+01-7.693824151E+00+
*       -9.358253987E+02               0
GRID*               5335               04.1122270956E+01-7.351836987E+00+
*       -9.375787856E+02               0
GRID*               5336               03.0547635921E+01-6.723864570E+00+
*       -9.393290647E+02               0
GRID*               5337               01.9968665657E+01-6.069383658E+00+
*       -9.410753698E+02               0
GRID*               5338               09.3929485568E+00-5.277546452E+00+
*       -9.428171386E+02               0
GRID*               5339               0-1.184371713E+00-4.368454829E+00+
*       -9.445526733E+02               0
GRID*               5340               06.2308732235E+01-7.901199522E+00+
*       -9.236232127E+02               0
GRID*               5341               05.1767422779E+01-7.673068167E+00+
*       -9.254045665E+02               0
GRID*               5342               04.1228118979E+01-7.331279518E+00+
*       -9.271823219E+02               0
GRID*               5343               03.0693527957E+01-6.696425621E+00+
*       -9.289569474E+02               0
GRID*               5344               02.0153076040E+01-6.052507608E+00+
*       -9.307274617E+02               0
GRID*               5345               09.6163381155E+00-5.263977388E+00+
*       -9.324934012E+02               0
GRID*               5346               0-9.221295350E-01-4.358542770E+00+
*       -9.342530176E+02               0
GRID*               5347               06.2335673821E+01-7.877840636E+00+
*       -9.131779662E+02               0
GRID*               5348               05.1833762265E+01-7.652433211E+00+
*       -9.149837352E+02               0
GRID*               5349               04.1333970414E+01-7.310689584E+00+
*       -9.167858599E+02               0
GRID*               5350               03.0839466943E+01-6.668403001E+00+
*       -9.185848347E+02               0
GRID*               5351               02.0337489169E+01-6.035633080E+00+
*       -9.203795555E+02               0
GRID*               5352               09.8397316565E+00-5.250396575E+00+
*       -9.221696653E+02               0
GRID*               5353               0-6.598858686E-01-4.348629858E+00+
*       -9.239533627E+02               0
GRID*               5354               06.2362610848E+01-7.854663076E+00+
*       -9.027327191E+02               0
GRID*               5355               05.1900097114E+01-7.631926964E+00+
*       -9.045629046E+02               0
GRID*               5356               04.1439825237E+01-7.290067405E+00+
*       -9.063893995E+02               0
GRID*               5357               03.0985443854E+01-6.639918012E+00+
*       -9.082127258E+02               0
GRID*               5358               02.0521904989E+01-6.018760297E+00+
*       -9.100316510E+02               0
GRID*               5359               01.0063129166E+01-5.236804026E+00+
*       -9.118459309E+02               0
GRID*               5360               0-3.976407205E-01-4.338716105E+00+
*       -9.136537087E+02               0
GRID*               5361               06.2389543199E+01-7.831670472E+00+
*       -8.922874714E+02               0
GRID*               5362               05.1966426938E+01-7.611557441E+00+
*       -8.941420748E+02               0
GRID*               5363               04.1545683424E+01-7.269413249E+00+
*       -8.959929408E+02               0
GRID*               5364               03.1131450273E+01-6.611083806E+00+
*       -8.978406204E+02               0
GRID*               5365               02.0706323440E+01-6.001889497E+00+
*       -8.996837484E+02               0
GRID*               5366               01.0286530628E+01-5.223199758E+00+
*       -9.015221981E+02               0
GRID*               5367               0-1.353940976E-01-4.328801526E+00+
*       -9.033540554E+02               0
GRID*               5368               06.2416470772E+01-7.808865912E+00+
*       -8.818422230E+02               0
GRID*               5369               05.2032751332E+01-7.591333013E+00+
*       -8.837212458E+02               0
GRID*               5370               04.1651544945E+01-7.248727434E+00+
*       -8.855964838E+02               0
GRID*               5371               03.1277478358E+01-6.582005745E+00+
*       -8.874685181E+02               0
GRID*               5372               02.0890744462E+01-5.985020933E+00+
*       -8.893358475E+02               0
GRID*               5373               01.0509936029E+01-5.209583790E+00+
*       -8.911984667E+02               0
GRID*               5374               01.2685399281E-01-4.318886135E+00+
*       -8.930544030E+02               0
GRID*               5375               06.2443393481E+01-7.786251959E+00+
*       -8.713969740E+02               0
GRID*               5376               05.2099069873E+01-7.571262419E+00+
*       -8.733004175E+02               0
GRID*               5377               04.1757409770E+01-7.228010332E+00+
*       -8.752000284E+02               0
GRID*               5378               03.1423520823E+01-6.552781753E+00+
*       -8.770964182E+02               0
GRID*               5379               02.1075167988E+01-5.968154876E+00+
*       -8.789879484E+02               0
GRID*               5380               01.0733345350E+01-5.195956147E+00+
*       -8.808747369E+02               0
GRID*               5381               03.8910354303E-01-4.308969951E+00+
*       -8.827547514E+02               0
GRID*               5382               06.2470311252E+01-7.763830665E+00+
*       -8.609517242E+02               0
GRID*               5383               05.2165382120E+01-7.551354789E+00+
*       -8.628795898E+02               0
GRID*               5384               04.1863277866E+01-7.207262375E+00+
*       -8.648035746E+02               0
GRID*               5385               03.1569570905E+01-6.523502649E+00+
*       -8.667243205E+02               0
GRID*               5386               02.1259593951E+01-5.951291614E+00+
*       -8.686400510E+02               0
GRID*               5387               01.0956758574E+01-5.182316856E+00+
*       -8.705510085E+02               0
GRID*               5388               06.5135454506E-01-4.299052994E+00+
*       -8.724551006E+02               0
GRID*               5389               06.2497224027E+01-7.741603587E+00+
*       -8.505064738E+02               0
GRID*               5390               05.2231687611E+01-7.531619668E+00+
*       -8.524587629E+02               0
GRID*               5391               04.1969149193E+01-7.186484058E+00+
*       -8.544071224E+02               0
GRID*               5392               03.1715622347E+01-6.494252464E+00+
*       -8.563522246E+02               0
GRID*               5393               02.1444022278E+01-5.934431455E+00+
*       -8.582921554E+02               0
GRID*               5394               01.1180175684E+01-5.168665946E+00+
*       -8.602272816E+02               0
GRID*               5395               09.1360699056E-01-4.289135284E+00+
*       -8.621554506E+02               0
GRID*               5396               06.2524131761E+01-7.719571803E+00+
*       -8.400612227E+02               0
GRID*               5397               05.2297985862E+01-7.512067030E+00+
*       -8.420379365E+02               0
GRID*               5398               04.2075023712E+01-7.165675945E+00+
*       -8.440106718E+02               0
GRID*               5399               03.1861669372E+01-6.465108751E+00+
*       -8.459801301E+02               0
GRID*               5400               02.1628452892E+01-5.917574725E+00+
*       -8.479442615E+02               0
GRID*               5401               01.1403596660E+01-5.155003454E+00+
*       -8.499035562E+02               0
GRID*               5402               01.1758608708E+00-4.279216846E+00+
*       -8.518558014E+02               0
GRID*               5403               06.2551034422E+01-7.697735925E+00+
*       -8.296159708E+02               0
GRID*               5404               05.2364276369E+01-7.492707312E+00+
*       -8.316171108E+02               0
GRID*               5405               04.2180901377E+01-7.144838674E+00+
*       -8.336142229E+02               0
GRID*               5406               03.2007706662E+01-6.436142868E+00+
*       -8.356080368E+02               0
GRID*               5407               02.1812885714E+01-5.900721772E+00+
*       -8.375963694E+02               0
GRID*               5408               01.1627021480E+01-5.141329419E+00+
*       -8.395798323E+02               0
GRID*               5409               01.4381161768E+00-4.269297704E+00+
*       -8.415561530E+02               0
GRID*               5410               06.2577931990E+01-7.676096112E+00+
*       -8.191707183E+02               0
GRID*               5411               05.2430558602E+01-7.473551432E+00+
*       -8.211962856E+02               0
GRID*               5412               04.2286782139E+01-7.123972961E+00+
*       -8.232177755E+02               0
GRID*               5413               03.2153729337E+01-6.407420266E+00+
*       -8.252359443E+02               0
GRID*               5414               02.1997320657E+01-5.883872967E+00+
*       -8.272484789E+02               0
GRID*               5415               01.1850450124E+01-5.127643886E+00+
*       -8.292561098E+02               0
GRID*               5416               01.7003728991E+00-4.259377886E+00+
*       -8.312565054E+02               0
GRID*               5417               06.2604824457E+01-7.654652088E+00+
*       -8.087254650E+02               0
GRID*               5418               05.2496832008E+01-7.454610821E+00+
*       -8.107754609E+02               0
GRID*               5419               04.2392665946E+01-7.103079610E+00+
*       -8.128213297E+02               0
GRID*               5420               03.2299732935E+01-6.379000744E+00+
*       -8.148638523E+02               0
GRID*               5421               02.2181757632E+01-5.867028704E+00+
*       -8.169005902E+02               0
GRID*               5422               01.2073882569E+01-5.113946904E+00+
*       -8.189323888E+02               0
GRID*               5423               01.9626310279E+00-4.249457421E+00+
*       -8.209568586E+02               0
GRID*               5424               06.2631711826E+01-7.633403152E+00+
*       -7.982802110E+02               0
GRID*               5425               05.2563096006E+01-7.435897452E+00+
*       -8.003546368E+02               0
GRID*               5426               04.2498552739E+01-7.082159516E+00+
*       -8.024248855E+02               0
GRID*               5427               03.2445713392E+01-6.350938716E+00+
*       -8.044917606E+02               0
GRID*               5428               02.2366196545E+01-5.850189401E+00+
*       -8.065527031E+02               0
GRID*               5429               01.2297318790E+01-5.100238528E+00+
*       -8.086086692E+02               0
GRID*               5430               02.2248905532E+00-4.239536339E+00+
*       -8.106572125E+02               0
GRID*               5431               06.2658594114E+01-7.612348193E+00+
*       -7.878349563E+02               0
GRID*               5432               05.2629349989E+01-7.417423870E+00+
*       -7.899338131E+02               0
GRID*               5433               04.2604442455E+01-7.061213671E+00+
*       -7.920284428E+02               0
GRID*               5434               03.2591667028E+01-6.323283444E+00+
*       -7.941196690E+02               0
GRID*               5435               02.2550637297E+01-5.833355502E+00+
*       -7.962048177E+02               0
GRID*               5436               01.2520758763E+01-5.086518819E+00+
*       -7.982849511E+02               0
GRID*               5437               02.4871514646E+00-4.229614673E+00+
*       -8.003575672E+02               0
GRID*               5438               06.2685471347E+01-7.591485700E+00+
*       -7.773897009E+02               0
GRID*               5439               05.2695593319E+01-7.399203228E+00+
*       -7.795129898E+02               0
GRID*               5440               04.2710335025E+01-7.040243175E+00+
*       -7.816320017E+02               0
GRID*               5441               03.2737590524E+01-6.296079279E+00+
*       -7.837475773E+02               0
GRID*               5442               02.2735079782E+01-5.816527483E+00+
*       -7.858569339E+02               0
GRID*               5443               01.2744202460E+01-5.072787845E+00+
*       -7.879612344E+02               0
GRID*               5444               02.7494137511E+00-4.219692459E+00+
*       -7.900579227E+02               0
GRID*               5445               06.2712343560E+01-7.570813781E+00+
*       -7.669444448E+02               0
GRID*               5446               05.2761825327E+01-7.381249326E+00+
*       -7.690921669E+02               0
GRID*               5447               04.2816230377E+01-7.019249240E+00+
*       -7.712355621E+02               0
GRID*               5448               03.2883480907E+01-6.269365879E+00+
*       -7.733754853E+02               0
GRID*               5449               02.2919523890E+01-5.799705845E+00+
*       -7.755090518E+02               0
GRID*               5450               01.2967649854E+01-5.059045680E+00+
*       -7.776375191E+02               0
GRID*               5451               03.0116774016E+00-4.209769734E+00+
*       -7.797582790E+02               0
GRID*               5452               06.2739210801E+01-7.550330167E+00+
*       -7.564991881E+02               0
GRID*               5453               05.2828045311E+01-7.363576647E+00+
*       -7.586713443E+02               0
GRID*               5454               04.2922128428E+01-6.998233201E+00+
*       -7.608391241E+02               0
GRID*               5455               03.3029335539E+01-6.243178429E+00+
*       -7.630033928E+02               0
GRID*               5456               02.3103969503E+01-5.782891124E+00+
*       -7.651611712E+02               0
GRID*               5457               01.3191100914E+01-5.045292404E+00+
*       -7.673138052E+02               0
GRID*               5458               03.2739424046E+00-4.199846538E+00+
*       -7.694586360E+02               0
GRID*               5459               06.2766073125E+01-7.530032233E+00+
*       -7.460539307E+02               0
GRID*               5460               05.2894343564E+01-7.345891905E+00+
*       -7.482505247E+02               0
GRID*               5461               04.3028029093E+01-6.977196523E+00+
*       -7.504426875E+02               0
GRID*               5462               03.3175152095E+01-6.217547838E+00+
*       -7.526312997E+02               0
GRID*               5463               02.3288416498E+01-5.766083889E+00+
*       -7.548132923E+02               0
GRID*               5464               01.3414555609E+01-5.031528108E+00+
*       -7.569900927E+02               0
GRID*               5465               03.5362087482E+00-4.189922911E+00+
*       -7.591589938E+02               0
GRID*               5466               06.2792930599E+01-7.509917002E+00+
*       -7.356086726E+02               0
GRID*               5467               05.2960868798E+01-7.324983811E+00+
*       -7.378297278E+02               0
GRID*               5468               04.3133932278E+01-6.956140813E+00+
*       -7.400462524E+02               0
GRID*               5469               03.3320928551E+01-6.192500946E+00+
*       -7.422592058E+02               0
GRID*               5470               02.3472864745E+01-5.749284745E+00+
*       -7.444654150E+02               0
GRID*               5471               01.3638013906E+01-5.017752889E+00+
*       -7.466663816E+02               0
GRID*               5472               03.7984764199E+00-4.179998899E+00+
*       -7.488593523E+02               0
GRID*               5473               06.2819783298E+01-7.489981163E+00+
*       -7.251634139E+02               0
GRID*               5474               05.3027498084E+01-7.300277247E+00+
*       -7.274089553E+02               0
GRID*               5475               04.3239837882E+01-6.935067825E+00+
*       -7.296498188E+02               0
GRID*               5476               03.3466663171E+01-6.168060702E+00+
*       -7.318871111E+02               0
GRID*               5477               02.3657314107E+01-5.732494336E+00+
*       -7.341175392E+02               0
GRID*               5478               01.3861475770E+01-5.003966852E+00+
*       -7.363426719E+02               0
GRID*               5479               04.0607454071E+00-4.170074547E+00+
*       -7.385597115E+02               0
GRID*               5480               06.2846631305E+01-7.470221077E+00+
*       -7.147181545E+02               0
GRID*               5481               05.3094222272E+01-7.272112501E+00+
*       -7.169882051E+02               0
GRID*               5482               04.3345745794E+01-6.913979478E+00+
*       -7.192533867E+02               0
GRID*               5483               03.3612354493E+01-6.144246351E+00+
*       -7.215150155E+02               0
GRID*               5484               02.3841764436E+01-5.715713348E+00+
*       -7.237696650E+02               0
GRID*               5485               01.4084941164E+01-4.990170115E+00+
*       -7.260189635E+02               0
GRID*               5486               04.3230156968E+00-4.160149905E+00+
*       -7.282600715E+02               0
GRID*               5487               06.2873474711E+01-7.450632793E+00+
*       -7.042728946E+02               0
GRID*               5488               05.3161032666E+01-7.240812924E+00+
*       -7.065674752E+02               0
GRID*               5489               04.3451655897E+01-6.892877862E+00+
*       -7.088569560E+02               0
GRID*               5490               03.3758001315E+01-6.121073608E+00+
*       -7.111429188E+02               0
GRID*               5491               02.4026215581E+01-5.698942511E+00+
*       -7.134217923E+02               0
GRID*               5492               01.4308410048E+01-4.976362803E+00+
*       -7.156952565E+02               0
GRID*               5493               04.5852872753E+00-4.150225024E+00+
*       -7.179604323E+02               0
GRID*               5494               06.2900313617E+01-7.431212057E+00+
*       -6.938276341E+02               0
GRID*               5495               05.3227921009E+01-7.206685666E+00+
*       -6.961467637E+02               0
GRID*               5496               04.3557568064E+01-6.871765256E+00+
*       -6.984605267E+02               0
GRID*               5497               03.3903602683E+01-6.098554817E+00+
*       -7.007708210E+02               0
GRID*               5498               02.4210667377E+01-5.682182600E+00+
*       -7.030739211E+02               0
GRID*               5499               01.4531882383E+01-4.962545053E+00+
*       -7.053715508E+02               0
GRID*               5500               04.8475601288E+00-4.140299959E+00+
*       -7.076607937E+02               0
GRID*               5501               06.2927148130E+01-7.411954321E+00+
*       -6.833823731E+02               0
GRID*               5502               05.3294879457E+01-7.170022373E+00+
*       -6.857260688E+02               0
GRID*               5503               04.3663482157E+01-6.850644135E+00+
*       -6.880640989E+02               0
GRID*               5504               03.4049157881E+01-6.076699120E+00+
*       -6.903987220E+02               0
GRID*               5505               02.4395119652E+01-5.665434444E+00+
*       -6.927260514E+02               0
GRID*               5506               01.4755358122E+01-4.948717016E+00+
*       -6.950478465E+02               0
GRID*               5507               05.1098342430E+00-4.130374767E+00+
*       -6.973611559E+02               0
GRID*               5508               06.2953978366E+01-7.392854757E+00+
*       -6.729371116E+02               0
GRID*               5509               05.3361900568E+01-7.131099851E+00+
*       -6.753053886E+02               0
GRID*               5510               04.3769398029E+01-6.829517193E+00+
*       -6.776676724E+02               0
GRID*               5511               03.4194666418E+01-6.055512603E+00+
*       -6.800266219E+02               0
GRID*               5512               02.4579572223E+01-5.648698926E+00+
*       -6.823781831E+02               0
GRID*               5513               01.4978837222E+01-4.934878853E+00+
*       -6.847241435E+02               0
GRID*               5514               05.3721096029E+00-4.120449510E+00+
*       -6.870615188E+02               0
GRID*               5515               06.2980804446E+01-7.373908265E+00+
*       -6.624918496E+02               0
GRID*               5516               05.3428977280E+01-7.090180706E+00+
*       -6.648847217E+02               0
GRID*               5517               04.3875315520E+01-6.808387353E+00+
*       -6.672712474E+02               0
GRID*               5518               03.4340128018E+01-6.034998444E+00+
*       -6.696545205E+02               0
GRID*               5519               02.4764024897E+01-5.631976985E+00+
*       -6.720303163E+02               0
GRID*               5520               01.5202319631E+01-4.921030741E+00+
*       -6.744004418E+02               0
GRID*               5521               05.6343861935E+00-4.110524250E+00+
*       -6.767618824E+02               0
GRID*               5522               06.3007626501E+01-7.355109484E+00+
*       -6.520465871E+02               0
GRID*               5523               05.3496102895E+01-7.047513949E+00+
*       -6.544640664E+02               0
GRID*               5524               04.3981234459E+01-6.787257789E+00+
*       -6.568748236E+02               0
GRID*               5525               03.4485542607E+01-6.015157056E+00+
*       -6.592824179E+02               0
GRID*               5526               02.4948477468E+01-5.615269627E+00+
*       -6.616824510E+02               0
GRID*               5527               01.5425805299E+01-4.907172870E+00+
*       -6.640767414E+02               0
GRID*               5528               05.8966639989E+00-4.100599055E+00+
*       -6.664622467E+02               0
GRID*               5529               06.3034444665E+01-7.336452803E+00+
*       -6.416013242E+02               0
GRID*               5530               05.3563271067E+01-7.003335578E+00+
*       -6.440434213E+02               0
GRID*               5531               04.4087154661E+01-6.766131943E+00+
*       -6.464784013E+02               0
GRID*               5532               03.4630910306E+01-5.995986221E+00+
*       -6.489103140E+02               0
GRID*               5533               02.5132929718E+01-5.598577923E+00+
*       -6.513345870E+02               0
GRID*               5534               01.5649294170E+01-4.893305447E+00+
*       -6.537530423E+02               0
GRID*               5535               06.1589430029E+00-4.090673996E+00+
*       -6.561626117E+02               0
GRID*               5536               06.3061259081E+01-7.317932368E+00+
*       -6.311560609E+02               0
GRID*               5537               05.3630475782E+01-6.957869129E+00+
*       -6.336227849E+02               0
GRID*               5538               04.4193075927E+01-6.745013544E+00+
*       -6.360819802E+02               0
GRID*               5539               03.4776231421E+01-5.977481219E+00+
*       -6.385382089E+02               0
GRID*               5540               02.5317381414E+01-5.581903019E+00+
*       -6.409867244E+02               0
GRID*               5541               01.5872786185E+01-4.879428699E+00+
*       -6.434293444E+02               0
GRID*               5542               06.4212231888E+00-4.080749148E+00+
*       -6.458629774E+02               0
GRID*               5543               06.3088069897E+01-7.299542094E+00+
*       -6.207107972E+02               0
GRID*               5544               05.3697711346E+01-6.911326208E+00+
*       -6.232021560E+02               0
GRID*               5545               04.4298998043E+01-6.723906637E+00+
*       -6.256855604E+02               0
GRID*               5546               03.4921506434E+01-5.959634952E+00+
*       -6.281661026E+02               0
GRID*               5547               02.5501926446E+01-5.564684891E+00+
*       -6.306388669E+02               0
GRID*               5548               01.6096281282E+01-4.865542867E+00+
*       -6.331056478E+02               0
GRID*               5549               06.6835045393E+00-4.070824590E+00+
*       -6.355633438E+02               0
GRID*               5550               06.3114877266E+01-7.281275674E+00+
*       -6.102655332E+02               0
GRID*               5551               05.3764972372E+01-6.863906999E+00+
*       -6.127815333E+02               0
GRID*               5552               04.4404920778E+01-6.702815601E+00+
*       -6.152891419E+02               0
GRID*               5553               03.5066735989E+01-5.942438066E+00+
*       -6.177939950E+02               0
GRID*               5554               02.5686830185E+01-5.543412340E+00+
*       -6.202910296E+02               0
GRID*               5555               01.6319779396E+01-4.851648216E+00+
*       -6.227819525E+02               0
GRID*               5556               06.9457870367E+00-4.060900406E+00+
*       -6.252637108E+02               0
GRID*               5557               06.3141681349E+01-7.263126586E+00+
*       -5.998202689E+02               0
GRID*               5558               05.3832253765E+01-6.815800746E+00+
*       -6.023609155E+02               0
GRID*               5559               04.4510843882E+01-6.681745181E+00+
*       -6.048927246E+02               0
GRID*               5560               03.5211920894E+01-5.925879063E+00+
*       -6.074218863E+02               0
GRID*               5561               02.5872039440E+01-5.518019855E+00+
*       -6.099432117E+02               0
GRID*               5562               01.6543280455E+01-4.837745033E+00+
*       -6.124582584E+02               0
GRID*               5563               07.2080706626E+00-4.050976683E+00+
*       -6.149640786E+02               0
GRID*               5564               06.3168482308E+01-7.245088105E+00+
*       -5.893750044E+02               0
GRID*               5565               05.3899550712E+01-6.767186220E+00+
*       -5.919403017E+02               0
GRID*               5566               04.4616767089E+01-6.660700518E+00+
*       -5.944963085E+02               0
GRID*               5567               03.5357062101E+01-5.909944411E+00+
*       -5.970497765E+02               0
GRID*               5568               02.6057509590E+01-5.489114985E+00+
*       -5.995954105E+02               0
GRID*               5569               01.6766784384E+01-4.823833627E+00+
*       -6.021345655E+02               0
GRID*               5570               07.4703553979E+00-4.041053516E+00+
*       -6.046644470E+02               0
GRID*               5571               06.3195280315E+01-7.227153312E+00+
*       -5.789297396E+02               0
GRID*               5572               05.3966858667E+01-6.718232163E+00+
*       -5.815196907E+02               0
GRID*               5573               04.4722690108E+01-6.639687178E+00+
*       -5.840998937E+02               0
GRID*               5574               03.5502160707E+01-5.894618652E+00+
*       -5.866776655E+02               0
GRID*               5575               02.6243199976E+01-5.457251253E+00+
*       -5.892476235E+02               0
GRID*               5576               01.6990291105E+01-4.809914335E+00+
*       -5.918108738E+02               0
GRID*               5577               07.7326412229E+00-4.031131003E+00+
*       -5.943648160E+02               0
GRID*               5578               06.3222075543E+01-7.209315098E+00+
*       -5.684844747E+02               0
GRID*               5579               05.4034173341E+01-6.669097712E+00+
*       -5.710990815E+02               0
GRID*               5580               04.4828612628E+01-6.618711193E+00+
*       -5.737034800E+02               0
GRID*               5581               03.5647217944E+01-5.879884499E+00+
*       -5.763055535E+02               0
GRID*               5582               02.6429073565E+01-5.422932688E+00+
*       -5.788998487E+02               0
GRID*               5583               01.7213800530E+01-4.795987522E+00+
*       -5.814871833E+02               0
GRID*               5584               07.9949281174E+00-4.021209249E+00+
*       -5.840651857E+02               0
GRID*               5585               06.3248868172E+01-7.191566177E+00+
*       -5.580392097E+02               0
GRID*               5586               05.4101490694E+01-6.619932811E+00+
*       -5.606784731E+02               0
GRID*               5587               04.4934534312E+01-6.597779099E+00+
*       -5.633070674E+02               0
GRID*               5588               03.5792235168E+01-5.865722934E+00+
*       -5.659334406E+02               0
GRID*               5589               02.6615096652E+01-5.386617928E+00+
*       -5.685520840E+02               0
GRID*               5590               01.7437312569E+01-4.782053584E+00+
*       -5.711634940E+02               0
GRID*               5591               08.2572160603E+00-4.011288365E+00+
*       -5.737655560E+02               0
GRID*               5592               06.3275658384E+01-7.173899091E+00+
*       -5.475939446E+02               0
GRID*               5593               05.4168806916E+01-6.570878601E+00+
*       -5.502578648E+02               0
GRID*               5594               04.5040454799E+01-6.576897978E+00+
*       -5.529106559E+02               0
GRID*               5595               03.5937213858E+01-5.852113302E+00+
*       -5.555613268E+02               0
GRID*               5596               02.6801238589E+01-5.348723939E+00+
*       -5.582043276E+02               0
GRID*               5597               01.7660827125E+01-4.768112950E+00+
*       -5.608398058E+02               0
GRID*               5598               08.5195050297E+00-4.001368470E+00+
*       -5.634659270E+02               0
GRID*               5599               06.3302446367E+01-7.156306220E+00+
*       -5.371486794E+02               0
GRID*               5600               05.4236118427E+01-6.522067798E+00+
*       -5.398372557E+02               0
GRID*               5601               04.5146373694E+01-6.556075513E+00+
*       -5.425142455E+02               0
GRID*               5602               03.6082155607E+01-5.839033398E+00+
*       -5.451892122E+02               0
GRID*               5603               02.6987471534E+01-5.309629396E+00+
*       -5.478565780E+02               0
GRID*               5604               01.7884344092E+01-4.754166088E+00+
*       -5.505161188E+02               0
GRID*               5605               08.7817950031E+00-3.991449690E+00+
*       -5.531662986E+02               0
GRID*               5606               06.3329232313E+01-7.138779789E+00+
*       -5.267034142E+02               0
GRID*               5607               05.4303421861E+01-6.473625050E+00+
*       -5.294166449E+02               0
GRID*               5608               04.5252290574E+01-6.535320035E+00+
*       -5.321178362E+02               0
GRID*               5609               03.6227062114E+01-5.826459549E+00+
*       -5.348170968E+02               0
GRID*               5610               02.7173770229E+01-5.269677742E+00+
*       -5.375088336E+02               0
GRID*               5611               01.8107863360E+01-4.740213505E+00+
*       -5.401924328E+02               0
GRID*               5612               09.0440859568E+00-3.981532159E+00+
*       -5.428666709E+02               0
GRID*               5613               06.3356016416E+01-7.121311874E+00+
*       -5.162581491E+02               0
GRID*               5614               05.4370714058E+01-6.425667290E+00+
*       -5.189960318E+02               0
GRID*               5615               04.5358204980E+01-6.514640590E+00+
*       -5.217214278E+02               0
GRID*               5616               03.6371935181E+01-5.814366700E+00+
*       -5.244449808E+02               0
GRID*               5617               02.7360111794E+01-5.229179997E+00+
*       -5.271610931E+02               0
GRID*               5618               01.8331384806E+01-4.726255752E+00+
*       -5.298687480E+02               0
GRID*               5619               09.3063778665E+00-3.971616020E+00+
*       -5.325670437E+02               0
GRID*               5620               06.3382798875E+01-7.103894410E+00+
*       -5.058128840E+02               0
GRID*               5621               05.4437992056E+01-6.378304066E+00+
*       -5.085754156E+02               0
GRID*               5622               04.5464116416E+01-6.494047002E+00+
*       -5.113250204E+02               0
GRID*               5623               03.6516776706E+01-5.802728482E+00+
*       -5.140728642E+02               0
GRID*               5624               02.7546475542E+01-5.188417296E+00+
*       -5.168133553E+02               0
GRID*               5625               01.8554908303E+01-4.712293430E+00+
*       -5.195450643E+02               0
GRID*               5626               09.5686707066E+00-3.961701426E+00+
*       -5.222674172E+02               0
GRID*               5627               06.3409579892E+01-7.086519197E+00+
*       -4.953676191E+02               0
GRID*               5628               05.4505253079E+01-6.331637864E+00+
*       -4.981547957E+02               0
GRID*               5629               04.5570024342E+01-6.473549949E+00+
*       -5.009286139E+02               0
GRID*               5630               03.6661588677E+01-5.791517292E+00+
*       -5.037007472E+02               0
GRID*               5631               02.7732842803E+01-5.147643226E+00+
*       -5.064656191E+02               0
GRID*               5632               01.8778433710E+01-4.698327193E+00+
*       -5.092213817E+02               0
GRID*               5633               09.8309644505E+00-3.951788540E+00+
*       -5.119677912E+02               0
GRID*               5634               06.3436359671E+01-7.069177906E+00+
*       -4.849223544E+02               0
GRID*               5635               05.4572494536E+01-6.285764416E+00+
*       -4.877341715E+02               0
GRID*               5636               04.5675928174E+01-6.453161049E+00+
*       -4.905322083E+02               0
GRID*               5637               03.6806373168E+01-5.780704355E+00+
*       -4.933286298E+02               0
GRID*               5638               02.7919196776E+01-5.107085949E+00+
*       -4.961178834E+02               0
GRID*               5639               01.9001960877E+01-4.684357752E+00+
*       -4.988977001E+02               0
GRID*               5640               01.0093259071E+01-3.941877539E+00+
*       -5.016681659E+02               0
GRID*               5641               06.3463138420E+01-7.051862089E+00+
*       -4.744770899E+02               0
GRID*               5642               05.4639714004E+01-6.240772999E+00+
*       -4.773135425E+02               0
GRID*               5643               04.5781827278E+01-6.432892953E+00+
*       -4.801358035E+02               0
GRID*               5644               03.6951132335E+01-5.770259791E+00+
*       -4.829565122E+02               0
GRID*               5645               02.8105522379E+01-5.066950158E+00+
*       -4.857701473E+02               0
GRID*               5646               01.9225489643E+01-4.670385887E+00+
*       -4.885740195E+02               0
GRID*               5647               01.0355554538E+01-3.931968610E+00+
*       -4.913685411E+02               0
GRID*               5648               06.3489916352E+01-7.034563177E+00+
*       -4.640318257E+02               0
GRID*               5649               05.4706909228E+01-6.196746721E+00+
*       -4.668929080E+02               0
GRID*               5650               04.5887720964E+01-6.412759448E+00+
*       -4.697393994E+02               0
GRID*               5651               03.7095868410E+01-5.760152673E+00+
*       -4.725843945E+02               0
GRID*               5652               02.8291806121E+01-5.027418859E+00+
*       -4.754224102E+02               0
GRID*               5653               01.9449019830E+01-4.656412447E+00+
*       -4.782503400E+02               0
GRID*               5654               01.0617850822E+01-3.922061957E+00+
*       -4.810689169E+02               0
GRID*               5655               06.3516693677E+01-7.017272490E+00+
*       -4.535865618E+02               0
GRID*               5656               05.4774078109E+01-6.153762802E+00+
*       -4.564722677E+02               0
GRID*               5657               04.5993608480E+01-6.392775583E+00+
*       -4.593429961E+02               0
GRID*               5658               03.7240583696E+01-5.750351083E+00+
*       -4.622122768E+02               0
GRID*               5659               02.8478035984E+01-4.988655019E+00+
*       -4.650746712E+02               0
GRID*               5660               01.9672551250E+01-4.642438363E+00+
*       -4.679266614E+02               0
GRID*               5661               01.0880147890E+01-3.912157798E+00+
*       -4.707692933E+02               0
GRID*               5662               06.3543470614E+01-6.999981242E+00+
*       -4.431412983E+02               0
GRID*               5663               05.4841218696E+01-6.111892838E+00+
*       -4.460516210E+02               0
GRID*               5664               04.6099489007E+01-6.372957800E+00+
*       -4.489465935E+02               0
GRID*               5665               03.7385280567E+01-5.740822158E+00+
*       -4.518401592E+02               0
GRID*               5666               02.8664201306E+01-4.950803073E+00+
*       -4.547269298E+02               0
GRID*               5667               01.9896083696E+01-4.628464651E+00+
*       -4.576029838E+02               0
GRID*               5668               01.1142445709E+01-3.902256369E+00+
*       -4.604696702E+02               0
GRID*               5669               06.3570247381E+01-6.982680541E+00+
*       -4.326960352E+02               0
GRID*               5670               05.4908329185E+01-6.071203061E+00+
*       -4.356309675E+02               0
GRID*               5671               04.6205361651E+01-6.353324085E+00+
*       -4.385501915E+02               0
GRID*               5672               03.7529961462E+01-5.731532140E+00+
*       -4.414680418E+02               0
GRID*               5673               02.8850292685E+01-4.913990311E+00+
*       -4.443791853E+02               0
GRID*               5674               02.0119616942E+01-4.614492429E+00+
*       -4.472793072E+02               0
GRID*               5675               01.1404744244E+01-3.892357926E+00+
*       -4.501700477E+02               0
GRID*               5676               06.3597024200E+01-6.965361395E+00+
*       -4.222507726E+02               0
GRID*               5677               05.4975407911E+01-6.031754594E+00+
*       -4.252103069E+02               0
GRID*               5678               04.6311225439E+01-6.333894148E+00+
*       -4.281537900E+02               0
GRID*               5679               03.7674628888E+01-5.722446411E+00+
*       -4.310959248E+02               0
GRID*               5680               02.9036301887E+01-4.878328162E+00+
*       -4.340314372E+02               0
GRID*               5681               02.0343150747E+01-4.600522924E+00+
*       -4.369556314E+02               0
GRID*               5682               01.1667043459E+01-3.882462746E+00+
*       -4.398704258E+02               0
GRID*               5683               06.3623801320E+01-6.948014716E+00+
*       -4.118055105E+02               0
GRID*               5684               05.5042453371E+01-5.993603687E+00+
*       -4.147896388E+02               0
GRID*               5685               04.6417079339E+01-6.314689620E+00+
*       -4.177573890E+02               0
GRID*               5686               03.7819285440E+01-5.713529531E+00+
*       -4.207238083E+02               0
GRID*               5687               02.9222221778E+01-4.843913377E+00+
*       -4.236836852E+02               0
GRID*               5688               02.0566684861E+01-4.586557487E+00+
*       -4.266319566E+02               0
GRID*               5689               01.1929322590E+01-3.872563058E+00+
*       -4.295708040E+02               0
GRID*               5690               06.3650579083E+01-6.930631329E+00+
*       -4.013602490E+02               0
GRID*               5691               05.5109464326E+01-5.956801962E+00+
*       -4.043689628E+02               0
GRID*               5692               04.6522922362E+01-6.295734282E+00+
*       -4.073609884E+02               0
GRID*               5693               03.7963933904E+01-5.704745276E+00+
*       -4.103516924E+02               0
GRID*               5694               02.9408046319E+01-4.810829119E+00+
*       -4.133359288E+02               0
GRID*               5695               02.0790219068E+01-4.572597612E+00+
*       -4.163082826E+02               0
GRID*               5696               01.2191592035E+01-3.862635138E+00+
*       -4.192711826E+02               0
GRID*               5697               06.3677358124E+01-6.913201989E+00+
*       -3.909149882E+02               0
GRID*               5698               05.5176440080E+01-5.921396644E+00+
*       -3.939482787E+02               0
GRID*               5699               04.6628753841E+01-6.277054348E+00+
*       -3.969645881E+02               0
GRID*               5700               03.8108577498E+01-5.696056694E+00+
*       -3.999795773E+02               0
GRID*               5701               02.9593770675E+01-4.779145985E+00+
*       -4.029881678E+02               0
GRID*               5702               02.1013753298E+01-4.558644960E+00+
*       -4.059846095E+02               0
GRID*               5703               01.2453866021E+01-3.852677794E+00+
*       -4.089715619E+02               0
GRID*               5704               06.3704139691E+01-6.895717414E+00+
*       -3.804697281E+02               0
GRID*               5705               05.5243380936E+01-5.887430803E+00+
*       -3.835275862E+02               0
GRID*               5706               04.6734573890E+01-6.258678790E+00+
*       -3.865681881E+02               0
GRID*               5707               03.8253220270E+01-5.687426163E+00+
*       -3.896074632E+02               0
GRID*               5708               02.9779391440E+01-4.748922957E+00+
*       -3.926404019E+02               0
GRID*               5709               02.1237287798E+01-4.544701397E+00+
*       -3.956609372E+02               0
GRID*               5710               01.2716144783E+01-3.842691177E+00+
*       -3.986719419E+02               0
GRID*               5711               06.3730926032E+01-6.878168309E+00+
*       -3.700244688E+02               0
GRID*               5712               05.5310288710E+01-5.854943608E+00+
*       -3.731068851E+02               0
GRID*               5713               04.6840383892E+01-6.240639718E+00+
*       -3.761717885E+02               0
GRID*               5714               03.8397867535E+01-5.678815455E+00+
*       -3.792353503E+02               0
GRID*               5715               02.9964906899E+01-4.720208302E+00+
*       -3.822926309E+02               0
GRID*               5716               02.1460823346E+01-4.530769028E+00+
*       -3.853372658E+02               0
GRID*               5717               01.2978428802E+01-3.832675473E+00+
*       -3.883723225E+02               0
GRID*               5718               06.3757720792E+01-6.860545383E+00+
*       -3.595792106E+02               0
GRID*               5719               05.5377167140E+01-5.823970589E+00+
*       -3.626861754E+02               0
GRID*               5720               04.6946186817E+01-6.222972817E+00+
*       -3.657753891E+02               0
GRID*               5721               03.8542526124E+01-5.670185733E+00+
*       -3.688632388E+02               0
GRID*               5722               03.0150317162E+01-4.693040400E+00+
*       -3.719448547E+02               0
GRID*               5723               02.1684361369E+01-4.516850239E+00+
*       -3.750135952E+02               0
GRID*               5724               01.3240718881E+01-3.822630910E+00+
*       -3.780727037E+02               0
GRID*               5725               06.3784529959E+01-6.842839409E+00+
*       -3.491339534E+02               0
GRID*               5726               05.5444022485E+01-5.794543905E+00+
*       -3.522654570E+02               0
GRID*               5727               04.7051987407E+01-6.205717847E+00+
*       -3.553789900E+02               0
GRID*               5728               03.8687204401E+01-5.661497503E+00+
*       -3.584911290E+02               0
GRID*               5729               03.0335624070E+01-4.667448522E+00+
*       -3.615970733E+02               0
GRID*               5730               02.1907903933E+01-4.502947726E+00+
*       -3.646899255E+02               0
GRID*               5731               01.3503016146E+01-3.812557756E+00+
*       -3.677730857E+02               0
GRID*               5732               06.3811365282E+01-6.825041478E+00+
*       -3.386886977E+02               0
GRID*               5733               05.5510865502E+01-5.766692684E+00+
*       -3.418447299E+02               0
GRID*               5734               04.7158149543E+01-6.185726208E+00+
*       -3.449826139E+02               0
GRID*               5735               03.8831912270E+01-5.652710533E+00+
*       -3.481190212E+02               0
GRID*               5736               03.0520830947E+01-4.643453534E+00+
*       -3.512492866E+02               0
GRID*               5737               02.2131453565E+01-4.489064515E+00+
*       -3.543662567E+02               0
GRID*               5738               01.3765321981E+01-3.802456321E+00+
*       -3.574734684E+02               0
GRID*               5739               06.3838277089E+01-6.807145780E+00+
*       -3.282434444E+02               0
GRID*               5740               05.5577721612E+01-5.740443731E+00+
*       -3.314239943E+02               0
GRID*               5741               04.7264636229E+01-6.157392080E+00+
*       -3.345862928E+02               0
GRID*               5742               03.8976661604E+01-5.643783793E+00+
*       -3.377469156E+02               0
GRID*               5743               03.0705942349E+01-4.621068547E+00+
*       -3.409014947E+02               0
GRID*               5744               02.2355157803E+01-4.474228074E+00+
*       -3.440425947E+02               0
GRID*               5745               01.4027637903E+01-3.792326944E+00+
*       -3.471738518E+02               0
GRID*               5746               06.3865369446E+01-6.789150110E+00+
*       -3.177981950E+02               0
GRID*               5747               05.5644631985E+01-5.715822132E+00+
*       -3.210032508E+02               0
GRID*               5748               04.7371367290E+01-6.122023064E+00+
*       -3.241900178E+02               0
GRID*               5749               03.9121464950E+01-5.634675111E+00+
*       -3.273748125E+02               0
GRID*               5750               03.0890963072E+01-4.600299466E+00+
*       -3.305536974E+02               0
GRID*               5751               02.2579469882E+01-4.452459639E+00+
*       -3.337189655E+02               0
GRID*               5752               01.4289965314E+01-3.782169978E+00+
*       -3.368742359E+02               0
GRID*               5753               06.3892543941E+01-6.771034007E+00+
*       -3.073529479E+02               0
GRID*               5754               05.5711573441E+01-5.692847768E+00+
*       -3.105824985E+02               0
GRID*               5755               04.7478304224E+01-6.080968177E+00+
*       -3.137937803E+02               0
GRID*               5756               03.9266326391E+01-5.625339718E+00+
*       -3.170027120E+02               0
GRID*               5757               03.1075894626E+01-4.581145292E+00+
*       -3.202058948E+02               0
GRID*               5758               02.2804270066E+01-4.424283794E+00+
*       -3.233953650E+02               0
GRID*               5759               01.4552304976E+01-3.771985747E+00+
*       -3.265746207E+02               0
GRID*               5760               06.3919749537E+01-6.752781848E+00+
*       -2.969077023E+02               0
GRID*               5761               05.5778512233E+01-5.671536860E+00+
*       -3.001617368E+02               0
GRID*               5762               04.7585398875E+01-6.035435958E+00+
*       -3.033975722E+02               0
GRID*               5763               03.9411241613E+01-5.615730134E+00+
*       -3.066306141E+02               0
GRID*               5764               03.1260734148E+01-4.563598469E+00+
*       -3.098580868E+02               0
GRID*               5765               02.3029439467E+01-4.391307418E+00+
*       -3.130717862E+02               0
GRID*               5766               01.4814656603E+01-3.761774514E+00+
*       -3.162750062E+02               0
GRID*               5767               06.3946969360E+01-6.734381017E+00+
*       -2.864624580E+02               0
GRID*               5768               05.5845427241E+01-5.651903327E+00+
*       -2.897409653E+02               0
GRID*               5769               04.7692607074E+01-5.986509632E+00+
*       -2.930013865E+02               0
GRID*               5770               03.9556203828E+01-5.605796777E+00+
*       -2.962585187E+02               0
GRID*               5771               03.1445476522E+01-4.547645460E+00+
*       -2.995102732E+02               0
GRID*               5772               02.3254875760E+01-4.354885197E+00+
*       -3.027482233E+02               0
GRID*               5773               01.5077018957E+01-3.751536498E+00+
*       -3.059753923E+02               0
GRID*               5774               06.3974197170E+01-6.715819580E+00+
*       -2.760172150E+02               0
GRID*               5775               05.5912307418E+01-5.633959153E+00+
*       -2.793201837E+02               0
GRID*               5776               04.7799892680E+01-5.935159791E+00+
*       -2.826052169E+02               0
GRID*               5777               03.9701207945E+01-5.595488169E+00+
*       -2.858864260E+02               0
GRID*               5778               03.1630116907E+01-4.533267376E+00+
*       -2.891624541E+02               0
GRID*               5779               02.3480491421E+01-4.316161339E+00+
*       -2.924246713E+02               0
GRID*               5780               01.5339390324E+01-3.741271924E+00+
*       -2.956757790E+02               0
GRID*               5781               06.4001430583E+01-6.697085576E+00+
*       -2.655719734E+02               0
GRID*               5782               05.5979147246E+01-5.617714526E+00+
*       -2.688993919E+02               0
GRID*               5783               04.7907226690E+01-5.882255856E+00+
*       -2.722090577E+02               0
GRID*               5784               03.9846251789E+01-5.584750557E+00+
*       -2.755143360E+02               0
GRID*               5785               03.1814652111E+01-4.520440544E+00+
*       -2.788146294E+02               0
GRID*               5786               02.3706212264E+01-4.276103307E+00+
*       -2.821011260E+02               0
GRID*               5787               01.5601768995E+01-3.730981070E+00+
*       -2.853761663E+02               0
GRID*               5788               06.4028668787E+01-6.678166712E+00+
*       -2.551267332E+02               0
GRID*               5789               05.6045944036E+01-5.603177971E+00+
*       -2.584785898E+02               0
GRID*               5790               04.8014585427E+01-5.828576495E+00+
*       -2.618129041E+02               0
GRID*               5791               03.9991335817E+01-5.573527129E+00+
*       -2.651422490E+02               0
GRID*               5792               03.1999080843E+01-4.509136992E+00+
*       -2.684667992E+02               0
GRID*               5793               02.3931975868E+01-4.235529365E+00+
*       -2.717775840E+02               0
GRID*               5794               01.5864153556E+01-3.720664304E+00+
*       -2.750765541E+02               0
GRID*               5795               06.4055911649E+01-6.659050169E+00+
*       -2.446814945E+02               0
GRID*               5796               05.6112696493E+01-5.590356512E+00+
*       -2.480577774E+02               0
GRID*               5797               04.8121949038E+01-5.774818977E+00+
*       -2.514167517E+02               0
GRID*               5798               04.0136462448E+01-5.561756923E+00+
*       -2.547701652E+02               0
GRID*               5799               03.2183403410E+01-4.499324841E+00+
*       -2.581189637E+02               0
GRID*               5800               02.4157729919E+01-4.195131246E+00+
*       -2.614540421E+02               0
GRID*               5801               01.6126542971E+01-3.710322105E+00+
*       -2.647769424E+02               0
GRID*               5802               06.4083159328E+01-6.639722417E+00+
*       -2.342362574E+02               0
GRID*               5803               05.6179403990E+01-5.579255855E+00+
*       -2.376369546E+02               0
GRID*               5804               04.8229300467E+01-5.721607511E+00+
*       -2.410205964E+02               0
GRID*               5805               04.0281635498E+01-5.549373385E+00+
*       -2.443980849E+02               0
GRID*               5806               03.2367621279E+01-4.490968676E+00+
*       -2.477711228E+02               0
GRID*               5807               02.4383430650E+01-4.155492927E+00+
*       -2.511304980E+02               0
GRID*               5808               01.6388936525E+01-3.699955071E+00+
*       -2.544773312E+02               0
GRID*               5809               06.4110412120E+01-6.620169009E+00+
*       -2.237910220E+02               0
GRID*               5810               05.6246066208E+01-5.569880580E+00+
*       -2.272161214E+02               0
GRID*               5811               04.8336624796E+01-5.669500660E+00+
*       -2.306244347E+02               0
GRID*               5812               04.0426859870E+01-5.536302432E+00+
*       -2.340260082E+02               0
GRID*               5813               03.2551736688E+01-4.484029879E+00+
*       -2.374232768E+02               0
GRID*               5814               02.4609041470E+01-4.117106277E+00+
*       -2.408069495E+02               0
GRID*               5815               01.6651333736E+01-3.689563929E+00+
*       -2.441777204E+02               0
GRID*               5816               06.4137670386E+01-6.600374314E+00+
*       -2.133457883E+02               0
GRID*               5817               05.6312682963E+01-5.562234363E+00+
*       -2.167952777E+02               0
GRID*               5818               04.8443908839E+01-5.618997931E+00+
*       -2.202282635E+02               0
GRID*               5819               04.0572141473E+01-5.522459747E+00+
*       -2.236539357E+02               0
GRID*               5820               03.2735752375E+01-4.478466958E+00+
*       -2.270754259E+02               0
GRID*               5821               02.4834531829E+01-4.080384163E+00+
*       -2.304833948E+02               0
GRID*               5822               01.6913734254E+01-3.679149551E+00+
*       -2.338781102E+02               0
GRID*               5823               06.4164934541E+01-6.580321166E+00+
*       -2.029005564E+02               0
GRID*               5824               05.6379254136E+01-5.556320198E+00+
*       -2.063744235E+02               0
GRID*               5825               04.8551140870E+01-5.570545642E+00+
*       -2.098320799E+02               0
GRID*               5826               04.0717487358E+01-5.507746889E+00+
*       -2.132818675E+02               0
GRID*               5827               03.2919671412E+01-4.474235868E+00+
*       -2.167275702E+02               0
GRID*               5828               02.5059876290E+01-4.045671477E+00+
*       -2.201598324E+02               0
GRID*               5829               01.7176137793E+01-3.668712978E+00+
*       -2.235785003E+02               0
GRID*               5830               06.4192205049E+01-6.559990382E+00+
*       -1.924553266E+02               0
GRID*               5831               05.6445779633E+01-5.552140641E+00+
*       -1.959535588E+02               0
GRID*               5832               04.8658310437E+01-5.524542166E+00+
*       -1.994358815E+02               0
GRID*               5833               04.0862906070E+01-5.492045542E+00+
*       -2.029098044E+02               0
GRID*               5834               03.3103497098E+01-4.471290323E+00+
*       -2.063797098E+02               0
GRID*               5835               02.5285053778E+01-4.013254470E+00+
*       -2.098362611E+02               0
GRID*               5836               01.7438544077E+01-3.658255452E+00+
*       -2.132788909E+02               0
GRID*               5837               06.4219545758E+01-6.539407694E+00+
*       -1.820100992E+02               0
GRID*               5838               05.6512259373E+01-5.549698065E+00+
*       -1.855326835E+02               0
GRID*               5839               04.8765408226E+01-5.481342624E+00+
*       -1.890396658E+02               0
GRID*               5840               04.1008408251E+01-5.475208734E+00+
*       -1.925377468E+02               0
GRID*               5841               03.3287232903E+01-4.469582111E+00+
*       -1.960318450E+02               0
GRID*               5842               02.5510046963E+01-3.983368683E+00+
*       -1.995126799E+02               0
GRID*               5843               01.7700952812E+01-3.647778463E+00+
*       -2.029792819E+02               0
GRID*               5844               06.4246911614E+01-6.518688798E+00+
*       -1.715648726E+02               0
GRID*               5845               05.6578693274E+01-5.548994934E+00+
*       -1.751117975E+02               0
GRID*               5846               04.8872425937E+01-5.441263108E+00+
*       -1.786434311E+02               0
GRID*               5847               04.1153879786E+01-5.457572937E+00+
*       -1.821656927E+02               0
GRID*               5848               03.3470882425E+01-4.469061401E+00+
*       -1.856839758E+02               0
GRID*               5849               02.5734841741E+01-3.956205727E+00+
*       -1.891890879E+02               0
GRID*               5850               01.7963363657E+01-3.637283811E+00+
*       -1.926796732E+02               0
GRID*               5851               06.4274280927E+01-6.497876027E+00+
*       -1.611196464E+02               0
GRID*               5852               05.6645081247E+01-5.550034096E+00+
*       -1.646909010E+02               0
GRID*               5853               04.8979356186E+01-5.404584483E+00+
*       -1.682471753E+02               0
GRID*               5854               04.1299345371E+01-5.439846952E+00+
*       -1.717936395E+02               0
GRID*               5855               03.3654449360E+01-4.469677051E+00+
*       -1.753361027E+02               0
GRID*               5856               02.5959426809E+01-3.931919095E+00+
*       -1.788654844E+02               0
GRID*               5857               01.8225776203E+01-3.626773685E+00+
*       -1.823800649E+02               0
GRID*               5858               06.4301652508E+01-6.477018805E+00+
*       -1.506744204E+02               0
GRID*               5859               05.6711423170E+01-5.552819094E+00+
*       -1.542699937E+02               0
GRID*               5860               04.9086192403E+01-5.371555822E+00+
*       -1.578508971E+02               0
GRID*               5861               04.1444814352E+01-5.422046325E+00+
*       -1.614215871E+02               0
GRID*               5862               03.3837937472E+01-4.471376922E+00+
*       -1.649882256E+02               0
GRID*               5863               02.6183793282E+01-3.910629180E+00+
*       -1.685418690E+02               0
GRID*               5864               01.8488189951E+01-3.616250778E+00+
*       -1.720804570E+02               0
GRID*               5865               06.4329024800E+01-6.456180689E+00+
*       -1.402291944E+02               0
GRID*               5866               05.6777718850E+01-5.557354508E+00+
*       -1.438490758E+02               0
GRID*               5867               04.9192928715E+01-5.342397525E+00+
*       -1.474545949E+02               0
GRID*               5868               04.1590286123E+01-5.404181605E+00+
*       -1.510495356E+02               0
GRID*               5869               03.4021350549E+01-4.474108192E+00+
*       -1.546403449E+02               0
GRID*               5870               02.6407934369E+01-3.892427627E+00+
*       -1.582182411E+02               0
GRID*               5871               01.8750604279E+01-3.605718430E+00+
*       -1.617808493E+02               0
GRID*               5872               06.4356395735E+01-6.435443589E+00+
*       -1.297839683E+02               0
GRID*               5873               05.6843967951E+01-5.563646323E+00+
*       -1.334281470E+02               0
GRID*               5874               04.9299559817E+01-5.317304148E+00+
*       -1.370582674E+02               0
GRID*               5875               04.1735759830E+01-5.386266649E+00+
*       -1.406774848E+02               0
GRID*               5876               03.4204692341E+01-4.477817690E+00+
*       -1.442924607E+02               0
GRID*               5877               02.6631845071E+01-3.877381111E+00+
*       -1.478946006E+02               0
GRID*               5878               01.9013018391E+01-3.595180844E+00+
*       -1.514812419E+02               0
GRID*               5879               06.4383762549E+01-6.414913675E+00+
*       -1.193387420E+02               0
GRID*               5880               05.6910169914E+01-5.571702338E+00+
*       -1.230072073E+02               0
GRID*               5881               04.9406080832E+01-5.296446990E+00+
*       -1.266619137E+02               0
GRID*               5882               04.1881234251E+01-5.368319720E+00+
*       -1.303054347E+02               0
GRID*               5883               03.4387966491E+01-4.482452237E+00+
*       -1.339445732E+02               0
GRID*               5884               02.6855521910E+01-3.865534653E+00+
*       -1.375709471E+02               0
GRID*               5885               01.9275431256E+01-3.584643369E+00+
*       -1.411816346E+02               0
GRID*               5886               06.4411159143E+01-6.394026245E+00+
*       -1.088935167E+02               0
GRID*               5887               05.6976323887E+01-5.581532617E+00+
*       -1.125862567E+02               0
GRID*               5888               04.9512487188E+01-5.279976450E+00+
*       -1.162655326E+02               0
GRID*               5889               04.2026707669E+01-5.350365076E+00+
*       -1.199333851E+02               0
GRID*               5890               03.4571176463E+01-4.487959026E+00+
*       -1.235966825E+02               0
GRID*               5891               02.7078962689E+01-3.856914532E+00+
*       -1.272472805E+02               0
GRID*               5892               01.9537841514E+01-3.574112919E+00+
*       -1.308820274E+02               0
GRID*               5893               06.4438561722E+01-6.372381247E+00+
*       -9.844829303E+01               0
GRID*               5894               05.7042428626E+01-5.593149996E+00+
*       -1.021652949E+02               0
GRID*               5895               04.9618774526E+01-5.268024202E+00+
*       -1.058691233E+02               0
GRID*               5896               04.2172177738E+01-5.332435280E+00+
*       -1.095613360E+02               0
GRID*               5897               03.4754325499E+01-4.494286031E+00+
*       -1.132487890E+02               0
GRID*               5898               02.7302166286E+01-3.851530867E+00+
*       -1.169236008E+02               0
GRID*               5899               01.9800296728E+01-3.563399105E+00+
*       -1.205824220E+02               0
GRID*               5900               06.4465965333E+01-6.350336617E+00+
*       -8.800307010E+01               0
GRID*               5901               05.7108482216E+01-5.606570638E+00+
*       -9.174432182E+01               0
GRID*               5902               04.9724938531E+01-5.260705184E+00+
*       -9.547268507E+01               0
GRID*               5903               04.2317641285E+01-5.314574696E+00+
*       -9.918928711E+01               0
GRID*               5904               03.4937416580E+01-4.501382476E+00+
*       -1.029008927E+02               0
GRID*               5905               02.7525132491E+01-3.849379911E+00+
*       -1.065999079E+02               0
GRID*               5906               02.0063435639E+01-3.545589948E+00+
*       -1.102828511E+02               0
GRID*               5907               06.4493358191E+01-6.328181880E+00+
*       -7.755784715E+01               0
GRID*               5908               05.7174479678E+01-5.621814486E+00+
*       -8.132333721E+01               0
GRID*               5909               04.9830974106E+01-5.258119454E+00+
*       -8.507621712E+01               0
GRID*               5910               04.2463093822E+01-5.296844877E+00+
*       -8.881723830E+01               0
GRID*               5911               03.5120452351E+01-4.509199362E+00+
*       -9.255299385E+01               0
GRID*               5912               02.7747861856E+01-3.850446116E+00+
*       -9.627620184E+01               0
GRID*               5913               02.0327021524E+01-3.521664061E+00+
*       -9.998330674E+01               0
GRID*               5914               06.4520725312E+01-6.306152733E+00+
*       -6.711262343E+01               0
GRID*               5915               05.7240414212E+01-5.638906149E+00+
*       -7.090234072E+01               0
GRID*               5916               04.9936875793E+01-5.260353892E+00+
*       -7.467971884E+01               0
GRID*               5917               04.2608529340E+01-5.279333272E+00+
*       -7.844518928E+01               0
GRID*               5918               03.5303435190E+01-4.517690102E+00+
*       -8.220509253E+01               0
GRID*               5919               02.7970355623E+01-3.854704003E+00+
*       -8.595248274E+01               0
GRID*               5920               02.0590747038E+01-3.495818977E+00+
*       -8.968377116E+01               0
GRID*               5921               06.4548078898E+01-6.284441549E+00+
*       -5.666739890E+01               0
GRID*               5922               05.7306288377E+01-5.657876726E+00+
*       -6.048133217E+01               0
GRID*               5923               05.0042641874E+01-5.267483904E+00+
*       -6.428318966E+01               0
GRID*               5924               04.2753941116E+01-5.262167881E+00+
*       -6.807313962E+01               0
GRID*               5925               03.5486367705E+01-4.526811310E+00+
*       -7.185718886E+01               0
GRID*               5926               02.8192615798E+01-3.862119879E+00+
*       -7.562875064E+01               0
GRID*               5927               02.0854414928E+01-3.470747539E+00+
*       -7.938423281E+01               0
GRID*               5928               06.4575423324E+01-6.263206614E+00+
*       -4.622217249E+01               0
GRID*               5929               05.7372103914E+01-5.678763845E+00+
*       -5.006031000E+01               0
GRID*               5930               05.0148270394E+01-5.279574961E+00+
*       -5.388662755E+01               0
GRID*               5931               04.2899528548E+01-5.244322863E+00+
*       -5.770109673E+01               0
GRID*               5932               03.5669250875E+01-4.536523489E+00+
*       -6.150928158E+01               0
GRID*               5933               02.8414644010E+01-3.872653333E+00+
*       -6.530500483E+01               0
GRID*               5934               02.1117895012E+01-3.448221562E+00+
*       -6.908468384E+01               0
GRID*               5935               06.4602745388E+01-6.242578754E+00+
*       -3.577693585E+01               0
GRID*               5936               05.7437840782E+01-5.701611223E+00+
*       -3.963926147E+01               0
GRID*               5937               05.0253736926E+01-5.296683346E+00+
*       -4.349001763E+01               0
GRID*               5938               04.3045575435E+01-5.217844607E+00+
*       -4.732909632E+01               0
GRID*               5939               03.5852068927E+01-4.546790566E+00+
*       -5.116135936E+01               0
GRID*               5940               02.8636432804E+01-3.886258019E+00+
*       -5.498123873E+01               0
GRID*               5941               02.1381096723E+01-3.429424197E+00+
*       -5.878511672E+01               0
GRID*               5942               06.4629968334E+01-6.222665983E+00+
*       -2.533164531E+01               0
GRID*               5943               05.7503380332E+01-5.726464959E+00+
*       -2.921811866E+01               0
GRID*               5944               05.0358904729E+01-5.318853751E+00+
*       -3.309328095E+01               0
GRID*               5945               04.3191559877E+01-5.187567884E+00+
*       -3.695702783E+01               0
GRID*               5946               03.6034723375E+01-4.557574824E+00+
*       -4.081336205E+01               0
GRID*               5947               02.8857926311E+01-3.902879793E+00+
*       -4.465741652E+01               0
GRID*               5948               02.1643939579E+01-3.415148022E+00+
*       -4.848551444E+01               0
GRID*               5949               06.4656810880E+01-6.203554709E+00+
*       -1.488614106E+01               0
GRID*               5950               05.7568279183E+01-5.753362374E+00+
*       -1.879662902E+01               0
GRID*               5951               05.0463259273E+01-5.346107509E+00+
*       -2.269612233E+01               0
GRID*               5952               04.3336854429E+01-5.158589913E+00+
*       -2.658457077E+01               0
GRID*               5953               03.6216823428E+01-4.568819548E+00+
*       -3.046505765E+01               0
GRID*               5954               02.9078888556E+01-3.922446862E+00+
*       -3.433339498E+01               0
GRID*               5955               02.1906291375E+01-3.405915362E+00+
*       -3.818581855E+01               0
GRID*               5956               06.4682522941E+01-6.185303385E+00+
*       -4.439994741E+00               0
GRID*               5957               05.7631325442E+01-5.782315093E+00+
*       -8.374101787E+00               0
GRID*               5958               05.0565360052E+01-5.378412839E+00+
*       -1.229771841E+01               0
GRID*               5959               04.3479939300E+01-5.134055138E+00+
*       -1.621087497E+01               0
GRID*               5960               03.6397176085E+01-4.580408954E+00+
*       -2.011574485E+01               0
GRID*               5961               02.9298551998E+01-3.944840816E+00+
*       -2.400871500E+01               0
GRID*               5962               02.2167811063E+01-3.402046016E+00+
*       -2.788583824E+01               0
GRID*               5963               06.4705394384E+01-6.165695243E+00+
*       6.0076599860E+00               0
GRID*               5964               05.7689996093E+01-5.813303192E+00+
*       2.0509034145E+00               0
GRID*               5965               05.0662075039E+01-5.415636165E+00+
*       -1.896288123E+00               0
GRID*               5966               04.3617449231E+01-5.115846833E+00+
*       -5.834031274E+00               0
GRID*               5967               03.6572807907E+01-4.592100449E+00+
*       -9.763689574E+00               0
GRID*               5968               02.9514821086E+01-3.969829191E+00+
*       -1.368212919E+01               0
GRID*               5969               02.2427555423E+01-3.403675441E+00+
*       -1.758501502E+01               0
GRID*               5970               06.4723289467E+01-6.140317220E+00+
*       1.6458165613E+01               0
GRID*               5971               05.7740230107E+01-5.846308712E+00+
*       1.2480723377E+01               0
GRID*               5972               05.0748033653E+01-5.457497622E+00+
*       8.5112064943E+00               0
GRID*               5973               04.3743178981E+01-5.104866299E+00+
*       4.5494521363E+00               0
GRID*               5974               03.6737509217E+01-4.603446542E+00+
*       5.9468609349E-01               0
GRID*               5975               02.9722646733E+01-3.996928049E+00+
*       -3.350639394E+00               0
GRID*               5976               02.2682954275E+01-3.410693788E+00+
*       -7.281796361E+00               0
GRID*               5977               06.4733667645E+01-6.119515306E+00+
*       2.6913183786E+01               0
GRID*               5978               05.7777052661E+01-5.881401800E+00+
*       2.2918315106E+01               0
GRID*               5979               05.0816069339E+01-5.503582377E+00+
*       1.8928838578E+01               0
GRID*               5980               04.3847935121E+01-5.101131283E+00+
*       1.4944630979E+01               0
GRID*               5981               03.6880536215E+01-4.613779542E+00+
*       1.0965409914E+01               0
GRID*               5982               02.9911085636E+01-4.025157989E+00+
*       6.9922145182E+00               0
GRID*               5983               02.2926733082E+01-3.422471717E+00+
*       3.0282810795E+00               0
GRID*               4670               01.7796015930E+02-2.688363314E+00+
*       -1.686128174E+03               0
GRID*               7148               01.6059196441E+02-3.931464316E+00+
*       -1.686128174E+03               0
GRID*               7149               01.4331135231E+02-6.109965956E+00+
*       -1.686128174E+03               0
GRID*               7150               01.2599375705E+02-7.908095656E+00+
*       -1.686128174E+03               0
GRID*               7151               01.0859915437E+02-8.860257204E+00+
*       -1.686128174E+03               0
GRID*               7152               09.1193771197E+01-9.498029146E+00+
*       -1.686128174E+03               0
GRID*               4671               01.2649128723E+02-2.434584618E+00+
*       7.0529777527E+01               0
GRID*               7153               01.1739211848E+02-3.660361426E+00+
*       6.5276370222E+01               0
GRID*               7154               01.0829159971E+02-4.872092373E+00+
*       6.0022184412E+01               0
GRID*               7155               09.9153150473E+01-5.616708434E+00+
*       5.4746096863E+01               0
GRID*               7156               08.9998351645E+01-6.049909590E+00+
*       4.9460572143E+01               0
GRID*               7157               08.0839123930E+01-6.260972929E+00+
*       4.4172491619E+01               0
GRID*               4506               01.7764807663E+02-2.684721679E+00+
*       -1.675466615E+03               0
GRID*               4507               01.7733599396E+02-2.681080045E+00+
*       -1.664805057E+03               0
GRID*               4508               01.7702391128E+02-2.677438411E+00+
*       -1.654143498E+03               0
GRID*               4509               01.7671182861E+02-2.673796776E+00+
*       -1.643481940E+03               0
GRID*               4510               01.7639974594E+02-2.670155142E+00+
*       -1.632820381E+03               0
GRID*               4511               01.7608766326E+02-2.666513508E+00+
*       -1.622158823E+03               0
GRID*               4512               01.7577558059E+02-2.662871874E+00+
*       -1.611497264E+03               0
GRID*               4513               01.7546349792E+02-2.659230239E+00+
*       -1.600835706E+03               0
GRID*               4514               01.7515141524E+02-2.655588605E+00+
*       -1.590174147E+03               0
GRID*               4515               01.7483933257E+02-2.651946971E+00+
*       -1.579512589E+03               0
GRID*               4516               01.7452724990E+02-2.648305336E+00+
*       -1.568851030E+03               0
GRID*               4517               01.7421516723E+02-2.644663702E+00+
*       -1.558189472E+03               0
GRID*               4518               01.7390308455E+02-2.641022068E+00+
*       -1.547527913E+03               0
GRID*               4519               01.7359100188E+02-2.637380434E+00+
*       -1.536866355E+03               0
GRID*               4520               01.7327891921E+02-2.633738799E+00+
*       -1.526204796E+03               0
GRID*               4521               01.7296683653E+02-2.630097165E+00+
*       -1.515543238E+03               0
GRID*               4522               01.7265475386E+02-2.626455531E+00+
*       -1.504881679E+03               0
GRID*               4523               01.7234267119E+02-2.622813896E+00+
*       -1.494220120E+03               0
GRID*               4524               01.7203058851E+02-2.619172262E+00+
*       -1.483558562E+03               0
GRID*               4525               01.7171850584E+02-2.615530628E+00+
*       -1.472897003E+03               0
GRID*               4526               01.7140642317E+02-2.611888993E+00+
*       -1.462235445E+03               0
GRID*               4527               01.7109434050E+02-2.608247359E+00+
*       -1.451573886E+03               0
GRID*               4528               01.7078225782E+02-2.604605725E+00+
*       -1.440912328E+03               0
GRID*               4529               01.7047017515E+02-2.600964091E+00+
*       -1.430250769E+03               0
GRID*               4530               01.7015809248E+02-2.597322456E+00+
*       -1.419589211E+03               0
GRID*               4531               01.6984600980E+02-2.593680822E+00+
*       -1.408927652E+03               0
GRID*               4532               01.6953392713E+02-2.590039188E+00+
*       -1.398266094E+03               0
GRID*               4533               01.6922184446E+02-2.586397553E+00+
*       -1.387604535E+03               0
GRID*               4534               01.6890976178E+02-2.582755919E+00+
*       -1.376942977E+03               0
GRID*               4535               01.6859767911E+02-2.579114285E+00+
*       -1.366281418E+03               0
GRID*               4536               01.6828559644E+02-2.575472651E+00+
*       -1.355619860E+03               0
GRID*               4537               01.6797351377E+02-2.571831016E+00+
*       -1.344958301E+03               0
GRID*               4538               01.6766143109E+02-2.568189382E+00+
*       -1.334296743E+03               0
GRID*               4539               01.6734934842E+02-2.564547748E+00+
*       -1.323635184E+03               0
GRID*               4540               01.6703726575E+02-2.560906113E+00+
*       -1.312973626E+03               0
GRID*               4541               01.6672518307E+02-2.557264479E+00+
*       -1.302312067E+03               0
GRID*               4542               01.6641310040E+02-2.553622845E+00+
*       -1.291650509E+03               0
GRID*               4543               01.6610101773E+02-2.549981210E+00+
*       -1.280988950E+03               0
GRID*               4544               01.6578893505E+02-2.546339576E+00+
*       -1.270327392E+03               0
GRID*               4545               01.6547685238E+02-2.542697942E+00+
*       -1.259665833E+03               0
GRID*               4546               01.6516476971E+02-2.539056308E+00+
*       -1.249004275E+03               0
GRID*               4547               01.6485268703E+02-2.535414673E+00+
*       -1.238342716E+03               0
GRID*               4548               01.6454060436E+02-2.531773039E+00+
*       -1.227681158E+03               0
GRID*               4549               01.6422852169E+02-2.528131405E+00+
*       -1.217019599E+03               0
GRID*               4550               01.6391643902E+02-2.524489770E+00+
*       -1.206358040E+03               0
GRID*               4551               01.6360435634E+02-2.520848136E+00+
*       -1.195696482E+03               0
GRID*               4552               01.6329239816E+02-2.518951048E+00+
*       -1.185034919E+03               0
GRID*               4553               01.6298052434E+02-2.518236078E+00+
*       -1.174373354E+03               0
GRID*               4554               01.6266865052E+02-2.517521108E+00+
*       -1.163711789E+03               0
GRID*               4555               01.6235677670E+02-2.516806138E+00+
*       -1.153050224E+03               0
GRID*               4556               01.6204490288E+02-2.516091169E+00+
*       -1.142388659E+03               0
GRID*               4557               01.6173302906E+02-2.515376199E+00+
*       -1.131727093E+03               0
GRID*               4558               01.6142115523E+02-2.514661229E+00+
*       -1.121065528E+03               0
GRID*               4559               01.6110928141E+02-2.513946259E+00+
*       -1.110403963E+03               0
GRID*               4560               01.6079740759E+02-2.513231290E+00+
*       -1.099742398E+03               0
GRID*               4561               01.6048553377E+02-2.512516320E+00+
*       -1.089080832E+03               0
GRID*               4562               01.6017365995E+02-2.511801350E+00+
*       -1.078419267E+03               0
GRID*               4563               01.5986178613E+02-2.511086380E+00+
*       -1.067757702E+03               0
GRID*               4564               01.5954991231E+02-2.510371411E+00+
*       -1.057096137E+03               0
GRID*               4565               01.5923803848E+02-2.509656441E+00+
*       -1.046434571E+03               0
GRID*               4566               01.5892616466E+02-2.508941471E+00+
*       -1.035773006E+03               0
GRID*               4567               01.5861429084E+02-2.508226501E+00+
*       -1.025111441E+03               0
GRID*               4568               01.5830241702E+02-2.507511532E+00+
*       -1.014449876E+03               0
GRID*               4569               01.5799054320E+02-2.506796562E+00+
*       -1.003788311E+03               0
GRID*               4570               01.5767866938E+02-2.506081592E+00+
*       -9.931267453E+02               0
GRID*               4571               01.5736679556E+02-2.505366622E+00+
*       -9.824651801E+02               0
GRID*               4572               01.5705492173E+02-2.504651653E+00+
*       -9.718036149E+02               0
GRID*               4573               01.5674304791E+02-2.503936683E+00+
*       -9.611420496E+02               0
GRID*               4574               01.5643117409E+02-2.503221713E+00+
*       -9.504804844E+02               0
GRID*               4575               01.5611930027E+02-2.502506743E+00+
*       -9.398189192E+02               0
GRID*               4576               01.5580742645E+02-2.501791774E+00+
*       -9.291573539E+02               0
GRID*               4577               01.5549555263E+02-2.501076804E+00+
*       -9.184957887E+02               0
GRID*               4578               01.5518367881E+02-2.500361834E+00+
*       -9.078342235E+02               0
GRID*               4579               01.5487180498E+02-2.499646864E+00+
*       -8.971726583E+02               0
GRID*               4580               01.5455993116E+02-2.498931895E+00+
*       -8.865110930E+02               0
GRID*               4581               01.5424805734E+02-2.498216925E+00+
*       -8.758495278E+02               0
GRID*               4582               01.5393618352E+02-2.497501955E+00+
*       -8.651879626E+02               0
GRID*               4583               01.5362430970E+02-2.496786986E+00+
*       -8.545263973E+02               0
GRID*               4584               01.5331243588E+02-2.496072016E+00+
*       -8.438648321E+02               0
GRID*               4585               01.5300056206E+02-2.495357046E+00+
*       -8.332032669E+02               0
GRID*               4586               01.5268868823E+02-2.494642076E+00+
*       -8.225417017E+02               0
GRID*               4587               01.5237681441E+02-2.493927107E+00+
*       -8.118801364E+02               0
GRID*               4588               01.5206494059E+02-2.493212137E+00+
*       -8.012185712E+02               0
GRID*               4589               01.5175306677E+02-2.492497167E+00+
*       -7.905570060E+02               0
GRID*               4590               01.5144119295E+02-2.491782197E+00+
*       -7.798954407E+02               0
GRID*               4591               01.5112931913E+02-2.491067228E+00+
*       -7.692338755E+02               0
GRID*               4592               01.5081744531E+02-2.490352258E+00+
*       -7.585723103E+02               0
GRID*               4593               01.5050557148E+02-2.489637288E+00+
*       -7.479107451E+02               0
GRID*               4594               01.5019369766E+02-2.488922318E+00+
*       -7.372491798E+02               0
GRID*               4595               01.4988182384E+02-2.488207349E+00+
*       -7.265876146E+02               0
GRID*               4596               01.4956995002E+02-2.487492379E+00+
*       -7.159260494E+02               0
GRID*               4597               01.4925807620E+02-2.486777409E+00+
*       -7.052644842E+02               0
GRID*               4598               01.4894620238E+02-2.486062439E+00+
*       -6.946029189E+02               0
GRID*               4599               01.4863432855E+02-2.485347470E+00+
*       -6.839413537E+02               0
GRID*               4600               01.4832245473E+02-2.484632500E+00+
*       -6.732797885E+02               0
GRID*               4601               01.4801058091E+02-2.483917530E+00+
*       -6.626182232E+02               0
GRID*               4602               01.4769870709E+02-2.483202560E+00+
*       -6.519566580E+02               0
GRID*               4603               01.4738683327E+02-2.482487591E+00+
*       -6.412950928E+02               0
GRID*               4604               01.4707495945E+02-2.481772621E+00+
*       -6.306335276E+02               0
GRID*               4605               01.4676308563E+02-2.481057651E+00+
*       -6.199719623E+02               0
GRID*               4606               01.4645121180E+02-2.480342681E+00+
*       -6.093103971E+02               0
GRID*               4607               01.4613933798E+02-2.479627712E+00+
*       -5.986488319E+02               0
GRID*               4608               01.4582746416E+02-2.478912742E+00+
*       -5.879872666E+02               0
GRID*               4609               01.4551559034E+02-2.478197772E+00+
*       -5.773257014E+02               0
GRID*               4610               01.4520371652E+02-2.477482802E+00+
*       -5.666641362E+02               0
GRID*               4611               01.4489184270E+02-2.476767833E+00+
*       -5.560025710E+02               0
GRID*               4612               01.4457996888E+02-2.476052863E+00+
*       -5.453410057E+02               0
GRID*               4613               01.4426809505E+02-2.475337893E+00+
*       -5.346794405E+02               0
GRID*               4614               01.4395622123E+02-2.474622923E+00+
*       -5.240178753E+02               0
GRID*               4615               01.4364434741E+02-2.473907954E+00+
*       -5.133563100E+02               0
GRID*               4616               01.4333247359E+02-2.473192984E+00+
*       -5.026947448E+02               0
GRID*               4617               01.4302059977E+02-2.472478014E+00+
*       -4.920331796E+02               0
GRID*               4618               01.4270872595E+02-2.471763044E+00+
*       -4.813716144E+02               0
GRID*               4619               01.4239685213E+02-2.471048075E+00+
*       -4.707100491E+02               0
GRID*               4620               01.4208497830E+02-2.470333105E+00+
*       -4.600484839E+02               0
GRID*               4621               01.4177310448E+02-2.469618135E+00+
*       -4.493869187E+02               0
GRID*               4622               01.4146123066E+02-2.468903165E+00+
*       -4.387253534E+02               0
GRID*               4623               01.4114935684E+02-2.468188196E+00+
*       -4.280637882E+02               0
GRID*               4624               01.4083748302E+02-2.467473226E+00+
*       -4.174022230E+02               0
GRID*               4625               01.4052560920E+02-2.466758256E+00+
*       -4.067406578E+02               0
GRID*               4626               01.4021373538E+02-2.466043286E+00+
*       -3.960790925E+02               0
GRID*               4627               01.3990186155E+02-2.465328317E+00+
*       -3.854175273E+02               0
GRID*               4628               01.3958998773E+02-2.464613347E+00+
*       -3.747559621E+02               0
GRID*               4629               01.3927811391E+02-2.463898377E+00+
*       -3.640943968E+02               0
GRID*               4630               01.3896624009E+02-2.463183407E+00+
*       -3.534328316E+02               0
GRID*               4631               01.3865436627E+02-2.462468438E+00+
*       -3.427712664E+02               0
GRID*               4632               01.3834249245E+02-2.461753468E+00+
*       -3.321097012E+02               0
GRID*               4633               01.3803061863E+02-2.461038498E+00+
*       -3.214481359E+02               0
GRID*               4634               01.3771874480E+02-2.460323528E+00+
*       -3.107865707E+02               0
GRID*               4635               01.3740687098E+02-2.459608559E+00+
*       -3.001250055E+02               0
GRID*               4636               01.3709499716E+02-2.458893589E+00+
*       -2.894634402E+02               0
GRID*               4637               01.3678312334E+02-2.458178619E+00+
*       -2.788018750E+02               0
GRID*               4638               01.3647124952E+02-2.457463649E+00+
*       -2.681403098E+02               0
GRID*               4639               01.3615937570E+02-2.456748680E+00+
*       -2.574787446E+02               0
GRID*               4640               01.3584750188E+02-2.456033710E+00+
*       -2.468171793E+02               0
GRID*               4641               01.3553562805E+02-2.455318740E+00+
*       -2.361556141E+02               0
GRID*               4642               01.3522375423E+02-2.454603771E+00+
*       -2.254940489E+02               0
GRID*               4643               01.3491188041E+02-2.453888801E+00+
*       -2.148324836E+02               0
GRID*               4644               01.3460000659E+02-2.453173831E+00+
*       -2.041709184E+02               0
GRID*               4645               01.3428813277E+02-2.452458861E+00+
*       -1.935093532E+02               0
GRID*               4646               01.3397625895E+02-2.451743892E+00+
*       -1.828477880E+02               0
GRID*               4647               01.3366438512E+02-2.451028922E+00+
*       -1.721862227E+02               0
GRID*               4648               01.3335251130E+02-2.450313952E+00+
*       -1.615246575E+02               0
GRID*               4649               01.3304063748E+02-2.449598982E+00+
*       -1.508630923E+02               0
GRID*               4650               01.3272876366E+02-2.448884013E+00+
*       -1.402015270E+02               0
GRID*               4651               01.3241688984E+02-2.448169043E+00+
*       -1.295399618E+02               0
GRID*               4652               01.3210501602E+02-2.447454073E+00+
*       -1.188783966E+02               0
GRID*               4653               01.3179314220E+02-2.446739103E+00+
*       -1.082168314E+02               0
GRID*               4654               01.3148126837E+02-2.446024134E+00+
*       -9.755526613E+01               0
GRID*               4655               01.3116939455E+02-2.445309164E+00+
*       -8.689370090E+01               0
GRID*               4656               01.3085752073E+02-2.444594194E+00+
*       -7.623213567E+01               0
GRID*               4657               01.3054564691E+02-2.443879224E+00+
*       -6.557057044E+01               0
GRID*               4658               01.3023377309E+02-2.443164255E+00+
*       -5.490900521E+01               0
GRID*               4659               01.2992189927E+02-2.442449285E+00+
*       -4.424743999E+01               0
GRID*               4660               01.2961002545E+02-2.441734315E+00+
*       -3.358587476E+01               0
GRID*               4661               01.2929815162E+02-2.441019345E+00+
*       -2.292430953E+01               0
GRID*               4662               01.2898627780E+02-2.440304376E+00+
*       -1.226274430E+01               0
GRID*               4663               01.2867440398E+02-2.439589406E+00+
*       -1.601179072E+00               0
GRID*               4664               01.2836253016E+02-2.438874436E+00+
*       9.0603861561E+00               0
GRID*               4665               01.2805065634E+02-2.438159466E+00+
*       1.9721951385E+01               0
GRID*               4666               01.2773878252E+02-2.437444497E+00+
*       3.0383516613E+01               0
GRID*               4667               01.2742690870E+02-2.436729527E+00+
*       4.1045081841E+01               0
GRID*               4668               01.2711503487E+02-2.436014557E+00+
*       5.1706647070E+01               0
GRID*               4669               01.2680316105E+02-2.435299587E+00+
*       6.2368212298E+01               0
GRID*               4008               02.1141989696E+02-2.118979935E+00+
*       -1.675371148E+03               0
GRID*               4009               02.0016130584E+02-2.332807306E+00+
*       -1.675404036E+03               0
GRID*               4010               01.8890393937E+02-2.514078153E+00+
*       -1.675435267E+03               0
GRID*               4011               02.1105135154E+02-2.112198578E+00+
*       -1.664620857E+03               0
GRID*               4012               01.9981145107E+02-2.331145778E+00+
*       -1.664682715E+03               0
GRID*               4013               01.8857286254E+02-2.510764030E+00+
*       -1.664743718E+03               0
GRID*               4014               02.1068307682E+02-2.106200275E+00+
*       -1.653872954E+03               0
GRID*               4015               01.9946190515E+02-2.329305296E+00+
*       -1.653963087E+03               0
GRID*               4016               01.8824201360E+02-2.507300196E+00+
*       -1.654053027E+03               0
GRID*               4017               02.1031493515E+02-2.100820517E+00+
*       -1.643125970E+03               0
GRID*               4018               01.9911250675E+02-2.327295512E+00+
*       -1.643244330E+03               0
GRID*               4019               01.8791127008E+02-2.503697338E+00+
*       -1.643362825E+03               0
GRID*               4020               02.0994686204E+02-2.095935887E+00+
*       -1.632379358E+03               0
GRID*               4021               01.9876317684E+02-2.325124513E+00+
*       -1.632525992E+03               0
GRID*               4022               01.8758057506E+02-2.499964787E+00+
*       -1.632672879E+03               0
GRID*               4023               02.0957882664E+02-2.091450962E+00+
*       -1.621632904E+03               0
GRID*               4024               01.9841387790E+02-2.322799523E+00+
*       -1.621807850E+03               0
GRID*               4025               01.8724990202E+02-2.496110986E+00+
*       -1.621983061E+03               0
GRID*               4026               02.0921081384E+02-2.087289973E+00+
*       -1.610886516E+03               0
GRID*               4027               01.9806459254E+02-2.320327240E+00+
*       -1.611089797E+03               0
GRID*               4028               01.8691923868E+02-2.492143716E+00+
*       -1.611293303E+03               0
GRID*               4029               02.0884281592E+02-2.083391232E+00+
*       -1.600140157E+03               0
GRID*               4030               01.9771531284E+02-2.317714008E+00+
*       -1.600371786E+03               0
GRID*               4031               01.8658857941E+02-2.488070204E+00+
*       -1.600603574E+03               0
GRID*               4032               02.0847482860E+02-2.079703278E+00+
*       -1.589393810E+03               0
GRID*               4033               01.9736603531E+02-2.314965897E+00+
*       -1.589653792E+03               0
GRID*               4034               01.8625792171E+02-2.483897194E+00+
*       -1.589913858E+03               0
GRID*               4035               02.0810684927E+02-2.076182131E+00+
*       -1.578647468E+03               0
GRID*               4036               01.9701675839E+02-2.312088744E+00+
*       -1.578935807E+03               0
GRID*               4037               01.8592726448E+02-2.479630996E+00+
*       -1.579224149E+03               0
GRID*               4038               02.0773887607E+02-2.072789295E+00+
*       -1.567901129E+03               0
GRID*               4039               01.9666748146E+02-2.309088179E+00+
*       -1.568217826E+03               0
GRID*               4040               01.8559660725E+02-2.475277523E+00+
*       -1.568534442E+03               0
GRID*               4041               02.0737090756E+02-2.069490265E+00+
*       -1.557154791E+03               0
GRID*               4042               01.9631820426E+02-2.305969633E+00+
*       -1.557499848E+03               0
GRID*               4043               01.8526594985E+02-2.470842321E+00+
*       -1.557844737E+03               0
GRID*               4044               02.0700294248E+02-2.066253386E+00+
*       -1.546408454E+03               0
GRID*               4045               01.9596892669E+02-2.302738353E+00+
*       -1.546781871E+03               0
GRID*               4046               01.8493529221E+02-2.466330602E+00+
*       -1.547155034E+03               0
GRID*               4047               02.0663497967E+02-2.063048971E+00+
*       -1.535662118E+03               0
GRID*               4048               01.9561964874E+02-2.299399405E+00+
*       -1.536063895E+03               0
GRID*               4049               01.8460463432E+02-2.461747259E+00+
*       -1.536465331E+03               0
GRID*               4050               02.0626701804E+02-2.059848589E+00+
*       -1.524915782E+03               0
GRID*               4051               01.9527037041E+02-2.295957682E+00+
*       -1.525345921E+03               0
GRID*               4052               01.8427397621E+02-2.457096897E+00+
*       -1.525775629E+03               0
GRID*               4053               02.0589905649E+02-2.056624466E+00+
*       -1.514169447E+03               0
GRID*               4054               01.9492109172E+02-2.292417909E+00+
*       -1.514627947E+03               0
GRID*               4055               01.8394331789E+02-2.452383850E+00+
*       -1.515085928E+03               0
GRID*               4056               02.0553109395E+02-2.053348979E+00+
*       -1.503423113E+03               0
GRID*               4057               01.9457181270E+02-2.288784651E+00+
*       -1.503909975E+03               0
GRID*               4058               01.8361265937E+02-2.447612199E+00+
*       -1.504396227E+03               0
GRID*               4059               02.0516312932E+02-2.049994188E+00+
*       -1.492676780E+03               0
GRID*               4060               01.9422253337E+02-2.285062312E+00+
*       -1.493192003E+03               0
GRID*               4061               01.8328200070E+02-2.442785787E+00+
*       -1.493706528E+03               0
GRID*               4062               02.0479516146E+02-2.046531384E+00+
*       -1.481930447E+03               0
GRID*               4063               01.9387325375E+02-2.281255148E+00+
*       -1.482474033E+03               0
GRID*               4064               01.8295134188E+02-2.437908241E+00+
*       -1.483016828E+03               0
GRID*               4065               02.0442718917E+02-2.042930623E+00+
*       -1.471184115E+03               0
GRID*               4066               01.9352397387E+02-2.277367265E+00+
*       -1.471756063E+03               0
GRID*               4067               01.8262068294E+02-2.432982980E+00+
*       -1.472327130E+03               0
GRID*               4068               02.0405921119E+02-2.039160221E+00+
*       -1.460437784E+03               0
GRID*               4069               01.9317469374E+02-2.273402626E+00+
*       -1.461038095E+03               0
GRID*               4070               01.8229002390E+02-2.428013230E+00+
*       -1.461637432E+03               0
GRID*               4071               02.0369122615E+02-2.035186146E+00+
*       -1.449691454E+03               0
GRID*               4072               01.9282541339E+02-2.269365057E+00+
*       -1.450320127E+03               0
GRID*               4073               01.8195936478E+02-2.423002039E+00+
*       -1.450947735E+03               0
GRID*               4074               02.0332323253E+02-2.030971278E+00+
*       -1.438945125E+03               0
GRID*               4075               01.9247613283E+02-2.265258248E+00+
*       -1.439602160E+03               0
GRID*               4076               01.8162870558E+02-2.417952284E+00+
*       -1.440258039E+03               0
GRID*               4077               02.0295522867E+02-2.026474441E+00+
*       -1.428198798E+03               0
GRID*               4078               01.9212685210E+02-2.261085762E+00+
*       -1.428884194E+03               0
GRID*               4079               01.8129804634E+02-2.412866684E+00+
*       -1.429568343E+03               0
GRID*               4080               02.0258721265E+02-2.021649093E+00+
*       -1.417452471E+03               0
GRID*               4081               01.9177757120E+02-2.256851032E+00+
*       -1.418166230E+03               0
GRID*               4082               01.8096738706E+02-2.407747809E+00+
*       -1.418878648E+03               0
GRID*               4083               02.0221918226E+02-2.016441469E+00+
*       -1.406706145E+03               0
GRID*               4084               01.9142829015E+02-2.252557373E+00+
*       -1.407448266E+03               0
GRID*               4085               01.8063672776E+02-2.402598089E+00+
*       -1.408188953E+03               0
GRID*               4086               02.0185113515E+02-2.010859095E+00+
*       -1.395959821E+03               0
GRID*               4087               01.9107900897E+02-2.248207977E+00+
*       -1.396730303E+03               0
GRID*               4088               01.8030606846E+02-2.397419822E+00+
*       -1.397499259E+03               0
GRID*               4089               02.0148308672E+02-2.005340449E+00+
*       -1.385213497E+03               0
GRID*               4090               01.9072972769E+02-2.243805926E+00+
*       -1.386012340E+03               0
GRID*               4091               01.7997540915E+02-2.392215183E+00+
*       -1.386809566E+03               0
GRID*               4092               02.0111504252E+02-1.999966314E+00+
*       -1.374467174E+03               0
GRID*               4093               01.9038044630E+02-2.239354188E+00+
*       -1.375294379E+03               0
GRID*               4094               01.7964474986E+02-2.386986227E+00+
*       -1.376119873E+03               0
GRID*               4095               02.0074700230E+02-1.994729045E+00+
*       -1.363720851E+03               0
GRID*               4096               01.9003116483E+02-2.234855622E+00+
*       -1.364576419E+03               0
GRID*               4097               01.7931409060E+02-2.381734902E+00+
*       -1.365430181E+03               0
GRID*               4098               02.0037896586E+02-1.989621744E+00+
*       -1.352974529E+03               0
GRID*               4099               01.8968188330E+02-2.230312985E+00+
*       -1.353858459E+03               0
GRID*               4100               01.7898343138E+02-2.376463050E+00+
*       -1.354740490E+03               0
GRID*               4101               02.0001093299E+02-1.984638157E+00+
*       -1.342228207E+03               0
GRID*               4102               01.8933260171E+02-2.225728931E+00+
*       -1.343140500E+03               0
GRID*               4103               01.7865277220E+02-2.371172415E+00+
*       -1.344050799E+03               0
GRID*               4104               01.9964290352E+02-1.979772587E+00+
*       -1.331481885E+03               0
GRID*               4105               01.8898332008E+02-2.221106015E+00+
*       -1.332422543E+03               0
GRID*               4106               01.7832211308E+02-2.365864648E+00+
*       -1.333361108E+03               0
GRID*               4107               01.9927487729E+02-1.975019818E+00+
*       -1.320735564E+03               0
GRID*               4108               01.8863403842E+02-2.216446698E+00+
*       -1.321704585E+03               0
GRID*               4109               01.7799145402E+02-2.360541312E+00+
*       -1.322671419E+03               0
GRID*               4110               01.9890685415E+02-1.970375049E+00+
*       -1.309989243E+03               0
GRID*               4111               01.8828475675E+02-2.211753349E+00+
*       -1.310986629E+03               0
GRID*               4112               01.7766079503E+02-2.355203887E+00+
*       -1.311981729E+03               0
GRID*               4113               01.9853883396E+02-1.965833841E+00+
*       -1.299242923E+03               0
GRID*               4114               01.8793547507E+02-2.207028244E+00+
*       -1.300268674E+03               0
GRID*               4115               01.7733013612E+02-2.349853774E+00+
*       -1.301292041E+03               0
GRID*               4116               01.9817081659E+02-1.961392069E+00+
*       -1.288496603E+03               0
GRID*               4117               01.8758619340E+02-2.202273575E+00+
*       -1.289550719E+03               0
GRID*               4118               01.7699947729E+02-2.344492298E+00+
*       -1.290602353E+03               0
GRID*               4119               01.9780280192E+02-1.957045877E+00+
*       -1.277750283E+03               0
GRID*               4120               01.8723691174E+02-2.197491449E+00+
*       -1.278832765E+03               0
GRID*               4121               01.7666881856E+02-2.339120714E+00+
*       -1.279912665E+03               0
GRID*               4122               01.9743478984E+02-1.952791647E+00+
*       -1.267003964E+03               0
GRID*               4123               01.8688763011E+02-2.192683889E+00+
*       -1.268114812E+03               0
GRID*               4124               01.7633815992E+02-2.333740211E+00+
*       -1.269222978E+03               0
GRID*               4125               01.9706678024E+02-1.948625962E+00+
*       -1.256257646E+03               0
GRID*               4126               01.8653834851E+02-2.187852842E+00+
*       -1.257396860E+03               0
GRID*               4127               01.7600750139E+02-2.328351912E+00+
*       -1.258533291E+03               0
GRID*               4128               01.9669877304E+02-1.944545582E+00+
*       -1.245511327E+03               0
GRID*               4129               01.8618906697E+02-2.183000175E+00+
*       -1.246678909E+03               0
GRID*               4130               01.7567684297E+02-2.322956881E+00+
*       -1.247843606E+03               0
GRID*               4131               01.9633076814E+02-1.940547418E+00+
*       -1.234765009E+03               0
GRID*               4132               01.8583978551E+02-2.178127681E+00+
*       -1.235960958E+03               0
GRID*               4133               01.7534618469E+02-2.317556123E+00+
*       -1.237153920E+03               0
GRID*               4134               01.9596276552E+02-1.936628507E+00+
*       -1.224018692E+03               0
GRID*               4135               01.8549050422E+02-2.173237079E+00+
*       -1.225243008E+03               0
GRID*               4136               01.7501552661E+02-2.312150588E+00+
*       -1.226464235E+03               0
GRID*               4137               01.9559476518E+02-1.932785999E+00+
*       -1.213272375E+03               0
GRID*               4138               01.8514122325E+02-2.168330018E+00+
*       -1.214525058E+03               0
GRID*               4139               01.7468486884E+02-2.306741175E+00+
*       -1.215774551E+03               0
GRID*               4140               01.9522676718E+02-1.929017132E+00+
*       -1.202526058E+03               0
GRID*               4141               01.8479194287E+02-2.163408073E+00+
*       -1.203807110E+03               0
GRID*               4142               01.7435421167E+02-2.301328730E+00+
*       -1.205084867E+03               0
GRID*               4143               01.9485877163E+02-1.925319223E+00+
*       -1.191779742E+03               0
GRID*               4144               01.8444266355E+02-2.158472753E+00+
*       -1.193089162E+03               0
GRID*               4145               01.7402355584E+02-2.295914051E+00+
*       -1.194395183E+03               0
GRID*               4146               01.9449077864E+02-1.921689651E+00+
*       -1.181033426E+03               0
GRID*               4147               01.8409338589E+02-2.153525497E+00+
*       -1.182371215E+03               0
GRID*               4148               01.7369290333E+02-2.290497885E+00+
*       -1.183705500E+03               0
GRID*               4149               01.9412278801E+02-1.918125848E+00+
*       -1.170287110E+03               0
GRID*               4150               01.8374410962E+02-2.148567701E+00+
*       -1.171653268E+03               0
GRID*               4151               01.7336225342E+02-2.285080949E+00+
*       -1.173015818E+03               0
GRID*               4152               01.9375479944E+02-1.914625281E+00+
*       -1.159540795E+03               0
GRID*               4153               01.8339483412E+02-2.143600707E+00+
*       -1.160935323E+03               0
GRID*               4154               01.7303160446E+02-2.279663924E+00+
*       -1.162326136E+03               0
GRID*               4155               01.9338681269E+02-1.911185445E+00+
*       -1.148794481E+03               0
GRID*               4156               01.8304555905E+02-2.138625794E+00+
*       -1.150217377E+03               0
GRID*               4157               01.7270095595E+02-2.274247447E+00+
*       -1.151636454E+03               0
GRID*               4158               01.9301882759E+02-1.907803850E+00+
*       -1.138048166E+03               0
GRID*               4159               01.8269628423E+02-2.133644177E+00+
*       -1.139499433E+03               0
GRID*               4160               01.7237030771E+02-2.268832116E+00+
*       -1.140946773E+03               0
GRID*               4161               01.9265084403E+02-1.904478014E+00+
*       -1.127301852E+03               0
GRID*               4162               01.8234700959E+02-2.128657019E+00+
*       -1.128781489E+03               0
GRID*               4163               01.7203965967E+02-2.263418492E+00+
*       -1.130257092E+03               0
GRID*               4164               01.9228286190E+02-1.901205454E+00+
*       -1.116555539E+03               0
GRID*               4165               01.8199773509E+02-2.123665425E+00+
*       -1.118063546E+03               0
GRID*               4166               01.7170901179E+02-2.258007103E+00+
*       -1.119567412E+03               0
GRID*               4167               01.9191488113E+02-1.897983679E+00+
*       -1.105809226E+03               0
GRID*               4168               01.8164846073E+02-2.118670451E+00+
*       -1.107345603E+03               0
GRID*               4169               01.7137836406E+02-2.252598444E+00+
*       -1.108877732E+03               0
GRID*               4170               01.9154690163E+02-1.894810180E+00+
*       -1.095062913E+03               0
GRID*               4171               01.8129918649E+02-2.113673099E+00+
*       -1.096627661E+03               0
GRID*               4172               01.7104771649E+02-2.247192979E+00+
*       -1.098188052E+03               0
GRID*               4173               01.9117892333E+02-1.891682428E+00+
*       -1.084316601E+03               0
GRID*               4174               01.8094991238E+02-2.108674325E+00+
*       -1.085909720E+03               0
GRID*               4175               01.7071706906E+02-2.241791142E+00+
*       -1.087498373E+03               0
GRID*               4176               01.9081094616E+02-1.888597862E+00+
*       -1.073570289E+03               0
GRID*               4177               01.8060063841E+02-2.103675038E+00+
*       -1.075191780E+03               0
GRID*               4178               01.7038642177E+02-2.236393341E+00+
*       -1.076808695E+03               0
GRID*               4179               01.9044297004E+02-1.885553883E+00+
*       -1.062823977E+03               0
GRID*               4180               01.8025136456E+02-2.098676099E+00+
*       -1.064473840E+03               0
GRID*               4181               01.7005577463E+02-2.230999954E+00+
*       -1.066119017E+03               0
GRID*               4182               01.9007499488E+02-1.882547854E+00+
*       -1.052077666E+03               0
GRID*               4183               01.7990209085E+02-2.093678326E+00+
*       -1.053755900E+03               0
GRID*               4184               01.6972512764E+02-2.225611336E+00+
*       -1.055429339E+03               0
GRID*               4185               01.8970702063E+02-1.879577086E+00+
*       -1.041331355E+03               0
GRID*               4186               01.7955281727E+02-2.088682495E+00+
*       -1.043037962E+03               0
GRID*               4187               01.6939448079E+02-2.220227815E+00+
*       -1.044739662E+03               0
GRID*               4188               01.8933904718E+02-1.876638834E+00+
*       -1.030585044E+03               0
GRID*               4189               01.7920354383E+02-2.083689339E+00+
*       -1.032320023E+03               0
GRID*               4190               01.6906383409E+02-2.214849699E+00+
*       -1.034049985E+03               0
GRID*               4191               01.8897107448E+02-1.873730298E+00+
*       -1.019838734E+03               0
GRID*               4192               01.7885427052E+02-2.078699552E+00+
*       -1.021602086E+03               0
GRID*               4193               01.6873318753E+02-2.209477270E+00+
*       -1.023360308E+03               0
GRID*               4194               01.8860310242E+02-1.870848605E+00+
*       -1.009092425E+03               0
GRID*               4195               01.7850499736E+02-2.073713787E+00+
*       -1.010884149E+03               0
GRID*               4196               01.6840254112E+02-2.204110790E+00+
*       -1.012670632E+03               0
GRID*               4197               01.8823513094E+02-1.867990816E+00+
*       -9.983461152E+02               0
GRID*               4198               01.7815572433E+02-2.068732662E+00+
*       -1.000166212E+03               0
GRID*               4199               01.6807189485E+02-2.198750501E+00+
*       -1.001980957E+03               0
GRID*               4200               01.8786715994E+02-1.865153910E+00+
*       -9.875998062E+02               0
GRID*               4201               01.7780645145E+02-2.063756755E+00+
*       -9.894482766E+02               0
GRID*               4202               01.6774124873E+02-2.193396625E+00+
*       -9.912912814E+02               0
GRID*               4203               01.8749918934E+02-1.862334784E+00+
*       -9.768534976E+02               0
GRID*               4204               01.7745717870E+02-2.058786611E+00+
*       -9.787303413E+02               0
GRID*               4205               01.6741060275E+02-2.188049366E+00+
*       -9.806016066E+02               0
GRID*               4206               01.8713121904E+02-1.859530246E+00+
*       -9.661071893E+02               0
GRID*               4207               01.7710790610E+02-2.053822741E+00+
*       -9.680124066E+02               0
GRID*               4208               01.6707995691E+02-2.182708907E+00+
*       -9.699119321E+02               0
GRID*               4209               01.8676324895E+02-1.856737008E+00+
*       -9.553608814E+02               0
GRID*               4210               01.7675863364E+02-2.048865621E+00+
*       -9.572944724E+02               0
GRID*               4211               01.6674931122E+02-2.177375418E+00+
*       -9.592222580E+02               0
GRID*               4212               01.8639527898E+02-1.853951680E+00+
*       -9.446145739E+02               0
GRID*               4213               01.7640936132E+02-2.043915696E+00+
*       -9.465765388E+02               0
GRID*               4214               01.6641866566E+02-2.172049052E+00+
*       -9.485325843E+02               0
GRID*               4215               01.8602730903E+02-1.851170763E+00+
*       -9.338682667E+02               0
GRID*               4216               01.7606008914E+02-2.038973380E+00+
*       -9.358586057E+02               0
GRID*               4217               01.6608802025E+02-2.166729943E+00+
*       -9.378429109E+02               0
GRID*               4218               01.8565933899E+02-1.848390647E+00+
*       -9.231219599E+02               0
GRID*               4219               01.7571081710E+02-2.034039056E+00+
*       -9.251406731E+02               0
GRID*               4220               01.6575737497E+02-2.161418213E+00+
*       -9.271532380E+02               0
GRID*               4221               01.8529136877E+02-1.845607596E+00+
*       -9.123756535E+02               0
GRID*               4222               01.7536154519E+02-2.029113080E+00+
*       -9.144227410E+02               0
GRID*               4223               01.6542672984E+02-2.156113971E+00+
*       -9.164635653E+02               0
GRID*               4224               01.8492339826E+02-1.842817748E+00+
*       -9.016293474E+02               0
GRID*               4225               01.7501227343E+02-2.024195778E+00+
*       -9.037048094E+02               0
GRID*               4226               01.6509608484E+02-2.150817308E+00+
*       -9.057738931E+02               0
GRID*               4227               01.8455542733E+02-1.840017104E+00+
*       -8.908830417E+02               0
GRID*               4228               01.7466300180E+02-2.019287449E+00+
*       -8.929868783E+02               0
GRID*               4229               01.6476543997E+02-2.145528307E+00+
*       -8.950842211E+02               0
GRID*               4230               01.8418745589E+02-1.837201522E+00+
*       -8.801367364E+02               0
GRID*               4231               01.7431373030E+02-2.014388366E+00+
*       -8.822689477E+02               0
GRID*               4232               01.6443479523E+02-2.140247035E+00+
*       -8.843945495E+02               0
GRID*               4233               01.8381948381E+02-1.834366707E+00+
*       -8.693904314E+02               0
GRID*               4234               01.7396445894E+02-2.009498779E+00+
*       -8.715510176E+02               0
GRID*               4235               01.6410415063E+02-2.134973550E+00+
*       -8.737048783E+02               0
GRID*               4236               01.8345151096E+02-1.831508203E+00+
*       -8.586441267E+02               0
GRID*               4237               01.7361518770E+02-2.004618909E+00+
*       -8.608330880E+02               0
GRID*               4238               01.6377350615E+02-2.129707895E+00+
*       -8.630152074E+02               0
GRID*               4239               01.8308353720E+02-1.828621382E+00+
*       -8.478978225E+02               0
GRID*               4240               01.7326591659E+02-1.999748958E+00+
*       -8.501151588E+02               0
GRID*               4241               01.6344286180E+02-2.124450106E+00+
*       -8.523255368E+02               0
GRID*               4242               01.8271556240E+02-1.825701438E+00+
*       -8.371515186E+02               0
GRID*               4243               01.7291664558E+02-1.994889104E+00+
*       -8.393972301E+02               0
GRID*               4244               01.6311221756E+02-2.119200208E+00+
*       -8.416358665E+02               0
GRID*               4245               01.8234758636E+02-1.822743372E+00+
*       -8.264052150E+02               0
GRID*               4246               01.7256737466E+02-1.990039501E+00+
*       -8.286793019E+02               0
GRID*               4247               01.6278157344E+02-2.113958215E+00+
*       -8.309461966E+02               0
GRID*               4248               01.8197960898E+02-1.819741983E+00+
*       -8.156589119E+02               0
GRID*               4249               01.7221810385E+02-1.985200284E+00+
*       -8.179613741E+02               0
GRID*               4250               01.6245092942E+02-2.108724132E+00+
*       -8.202565270E+02               0
GRID*               4251               01.8161163015E+02-1.816691855E+00+
*       -8.049126091E+02               0
GRID*               4252               01.7186883314E+02-1.980371566E+00+
*       -8.072434468E+02               0
GRID*               4253               01.6212028552E+02-2.103497956E+00+
*       -8.095668577E+02               0
GRID*               4254               01.8124364971E+02-1.813587343E+00+
*       -7.941663066E+02               0
GRID*               4255               01.7151956254E+02-1.975553444E+00+
*       -7.965255198E+02               0
GRID*               4256               01.6178964174E+02-2.098279676E+00+
*       -7.988771887E+02               0
GRID*               4257               01.8087566750E+02-1.810422559E+00+
*       -7.834200046E+02               0
GRID*               4258               01.7117029206E+02-1.970745991E+00+
*       -7.858075933E+02               0
GRID*               4259               01.6145899807E+02-2.093069272E+00+
*       -7.881875199E+02               0
GRID*               4260               01.8050768337E+02-1.807191355E+00+
*       -7.726737029E+02               0
GRID*               4261               01.7082102169E+02-1.965949267E+00+
*       -7.750896673E+02               0
GRID*               4262               01.6112835451E+02-2.087866717E+00+
*       -7.774978515E+02               0
GRID*               4263               01.8013969713E+02-1.803887310E+00+
*       -7.619274016E+02               0
GRID*               4264               01.7047175143E+02-1.961163311E+00+
*       -7.643717416E+02               0
GRID*               4265               01.6079771107E+02-2.082671976E+00+
*       -7.668081834E+02               0
GRID*               4266               01.7977170860E+02-1.800503704E+00+
*       -7.511811006E+02               0
GRID*               4267               01.7012248127E+02-1.956388147E+00+
*       -7.536538163E+02               0
GRID*               4268               01.6046706773E+02-2.077485010E+00+
*       -7.561185155E+02               0
GRID*               4269               01.7940371760E+02-1.797033505E+00+
*       -7.404348001E+02               0
GRID*               4270               01.6977321122E+02-1.951623784E+00+
*       -7.429358914E+02               0
GRID*               4271               01.6013642451E+02-2.072305771E+00+
*       -7.454288480E+02               0
GRID*               4272               01.7903572393E+02-1.793469343E+00+
*       -7.296884999E+02               0
GRID*               4273               01.6942394126E+02-1.946870214E+00+
*       -7.322179670E+02               0
GRID*               4274               01.5980578139E+02-2.067134206E+00+
*       -7.347391807E+02               0
GRID*               4275               01.7866772739E+02-1.789803484E+00+
*       -7.189422002E+02               0
GRID*               4276               01.6907467141E+02-1.942127416E+00+
*       -7.215000429E+02               0
GRID*               4277               01.5947513837E+02-2.061970256E+00+
*       -7.240495137E+02               0
GRID*               4278               01.7829972775E+02-1.786027807E+00+
*       -7.081959008E+02               0
GRID*               4279               01.6872540164E+02-1.937395353E+00+
*       -7.107821191E+02               0
GRID*               4280               01.5914449546E+02-2.056813857E+00+
*       -7.133598469E+02               0
GRID*               4281               01.7793172478E+02-1.782133768E+00+
*       -6.974496018E+02               0
GRID*               4282               01.6837613196E+02-1.932673978E+00+
*       -7.000641958E+02               0
GRID*               4283               01.5881385265E+02-2.051664941E+00+
*       -7.026701804E+02               0
GRID*               4284               01.7756371826E+02-1.778112373E+00+
*       -6.867033032E+02               0
GRID*               4285               01.6802686237E+02-1.927963227E+00+
*       -6.893462728E+02               0
GRID*               4286               01.5848320993E+02-2.046523434E+00+
*       -6.919805142E+02               0
GRID*               4287               01.7719570890E+02-1.773955057E+00+
*       -6.759570050E+02               0
GRID*               4288               01.6767759286E+02-1.923263029E+00+
*       -6.786283501E+02               0
GRID*               4289               01.5815256731E+02-2.041389257E+00+
*       -6.812908482E+02               0
GRID*               4290               01.7682771659E+02-1.769902675E+00+
*       -6.652107066E+02               0
GRID*               4291               01.6732832343E+02-1.918573298E+00+
*       -6.679104278E+02               0
GRID*               4292               01.5782192478E+02-2.036262330E+00+
*       -6.706011825E+02               0
GRID*               4293               01.7645973339E+02-1.766144107E+00+
*       -6.544644082E+02               0
GRID*               4294               01.6697905407E+02-1.913893938E+00+
*       -6.571925058E+02               0
GRID*               4295               01.5749128234E+02-2.031142566E+00+
*       -6.599115170E+02               0
GRID*               4296               01.7609175913E+02-1.762673184E+00+
*       -6.437181099E+02               0
GRID*               4297               01.6662978478E+02-1.909224844E+00+
*       -6.464745842E+02               0
GRID*               4298               01.5716063999E+02-2.026029876E+00+
*       -6.492218517E+02               0
GRID*               4299               01.7572379359E+02-1.759483458E+00+
*       -6.329718116E+02               0
GRID*               4300               01.6628051555E+02-1.904565901E+00+
*       -6.357566629E+02               0
GRID*               4301               01.5682999773E+02-2.020924169E+00+
*       -6.385321867E+02               0
GRID*               4302               01.7535583657E+02-1.756568189E+00+
*       -6.222255135E+02               0
GRID*               4303               01.6593124638E+02-1.899916985E+00+
*       -6.250387419E+02               0
GRID*               4304               01.5649935555E+02-2.015825348E+00+
*       -6.278425219E+02               0
GRID*               4305               01.7498788785E+02-1.753920344E+00+
*       -6.114792153E+02               0
GRID*               4306               01.6558197727E+02-1.895277962E+00+
*       -6.143208212E+02               0
GRID*               4307               01.5616871345E+02-2.010733316E+00+
*       -6.171528574E+02               0
GRID*               4308               01.7461994720E+02-1.751532592E+00+
*       -6.007329173E+02               0
GRID*               4309               01.6523270821E+02-1.890648694E+00+
*       -6.036029009E+02               0
GRID*               4310               01.5583807143E+02-2.005647973E+00+
*       -6.064631930E+02               0
GRID*               4311               01.7425201439E+02-1.749397289E+00+
*       -5.899866192E+02               0
GRID*               4312               01.6488343905E+02-1.886028993E+00+
*       -5.928849808E+02               0
GRID*               4313               01.5550742948E+02-2.000569217E+00+
*       -5.957735289E+02               0
GRID*               4314               01.7388408916E+02-1.747506481E+00+
*       -5.792403213E+02               0
GRID*               4315               01.6453414083E+02-1.880708580E+00+
*       -5.821670618E+02               0
GRID*               4316               01.5517678761E+02-1.995496942E+00+
*       -5.850838650E+02               0
GRID*               4317               01.7351617126E+02-1.745851890E+00+
*       -5.684940234E+02               0
GRID*               4318               01.6418482628E+02-1.874274509E+00+
*       -5.714491441E+02               0
GRID*               4319               01.5484614581E+02-1.990431043E+00+
*       -5.743942012E+02               0
GRID*               4320               01.7314826042E+02-1.744424910E+00+
*       -5.577477255E+02               0
GRID*               4321               01.6383550082E+02-1.867092827E+00+
*       -5.607312273E+02               0
GRID*               4322               01.5451550408E+02-1.985371412E+00+
*       -5.637045377E+02               0
GRID*               4323               01.7278035636E+02-1.743216600E+00+
*       -5.470014277E+02               0
GRID*               4324               01.6348616904E+02-1.859476092E+00+
*       -5.500133112E+02               0
GRID*               4325               01.5418486242E+02-1.980317940E+00+
*       -5.530148744E+02               0
GRID*               4326               01.7241245880E+02-1.742217674E+00+
*       -5.362551300E+02               0
GRID*               4327               01.6313683482E+02-1.851691940E+00+
*       -5.392953954E+02               0
GRID*               4328               01.5385422082E+02-1.975270517E+00+
*       -5.423252113E+02               0
GRID*               4329               01.7204456744E+02-1.741418497E+00+
*       -5.255088323E+02               0
GRID*               4330               01.6278750147E+02-1.843969365E+00+
*       -5.285774798E+02               0
GRID*               4331               01.5352357928E+02-1.970229033E+00+
*       -5.316355484E+02               0
GRID*               4332               01.7167668196E+02-1.740809074E+00+
*       -5.147625347E+02               0
GRID*               4333               01.6243817175E+02-1.836503212E+00+
*       -5.178595643E+02               0
GRID*               4334               01.5319293780E+02-1.965193375E+00+
*       -5.209458856E+02               0
GRID*               4335               01.7130880204E+02-1.740379043E+00+
*       -5.040162371E+02               0
GRID*               4336               01.6208884793E+02-1.829457211E+00+
*       -5.071416487E+02               0
GRID*               4337               01.5286229638E+02-1.960163433E+00+
*       -5.102562231E+02               0
GRID*               4338               01.7094092736E+02-1.740117668E+00+
*       -4.932699395E+02               0
GRID*               4339               01.6173953183E+02-1.822965738E+00+
*       -4.964237329E+02               0
GRID*               4340               01.5253165501E+02-1.955139092E+00+
*       -4.995665607E+02               0
GRID*               4341               01.7057305757E+02-1.740013830E+00+
*       -4.825236420E+02               0
GRID*               4342               01.6139022481E+02-1.817134382E+00+
*       -4.857058167E+02               0
GRID*               4343               01.5220101370E+02-1.950120242E+00+
*       -4.888768985E+02               0
GRID*               4344               01.7020519230E+02-1.740056016E+00+
*       -4.717773446E+02               0
GRID*               4345               01.6104092775E+02-1.812039283E+00+
*       -4.749879002E+02               0
GRID*               4346               01.5187037244E+02-1.945106770E+00+
*       -4.781872364E+02               0
GRID*               4347               01.6983733120E+02-1.740232316E+00+
*       -4.610310472E+02               0
GRID*               4348               01.6069164102E+02-1.807725070E+00+
*       -4.642699833E+02               0
GRID*               4349               01.5153973122E+02-1.940098562E+00+
*       -4.674975745E+02               0
GRID*               4350               01.6946947388E+02-1.740530407E+00+
*       -4.502847498E+02               0
GRID*               4351               01.6034236830E+02-1.802652852E+00+
*       -4.535520675E+02               0
GRID*               4352               01.5120909005E+02-1.935095509E+00+
*       -4.568079128E+02               0
GRID*               4353               01.6910161994E+02-1.740937549E+00+
*       -4.395384525E+02               0
GRID*               4354               01.5999303393E+02-1.794505601E+00+
*       -4.428341568E+02               0
GRID*               4355               01.5087844892E+02-1.930097497E+00+
*       -4.461182512E+02               0
GRID*               4356               01.6873376899E+02-1.741440574E+00+
*       -4.287921553E+02               0
GRID*               4357               01.5964363782E+02-1.783507666E+00+
*       -4.321162509E+02               0
GRID*               4358               01.5054780784E+02-1.925104417E+00+
*       -4.354285898E+02               0
GRID*               4359               01.6836592058E+02-1.742025875E+00+
*       -4.180458581E+02               0
GRID*               4360               01.5929418539E+02-1.769908511E+00+
*       -4.213983495E+02               0
GRID*               4361               01.5021716679E+02-1.920116158E+00+
*       -4.247389285E+02               0
GRID*               4362               01.6799807431E+02-1.742679399E+00+
*       -4.072995609E+02               0
GRID*               4363               01.5894468185E+02-1.753950537E+00+
*       -4.106804522E+02               0
GRID*               4364               01.4988652578E+02-1.915132612E+00+
*       -4.140492674E+02               0
GRID*               4365               01.6763022970E+02-1.743386633E+00+
*       -3.965532638E+02               0
GRID*               4366               01.5859513231E+02-1.735869313E+00+
*       -3.999625585E+02               0
GRID*               4367               01.4955588480E+02-1.910153671E+00+
*       -4.033596064E+02               0
GRID*               4368               01.6726238630E+02-1.744132598E+00+
*       -3.858069668E+02               0
GRID*               4369               01.5824554172E+02-1.715893792E+00+
*       -3.892446681E+02               0
GRID*               4370               01.4922524386E+02-1.905179228E+00+
*       -3.926699455E+02               0
GRID*               4371               01.6689454364E+02-1.744901834E+00+
*       -3.750606698E+02               0
GRID*               4372               01.5789591488E+02-1.694246538E+00+
*       -3.785267805E+02               0
GRID*               4373               01.4889460295E+02-1.900209178E+00+
*       -3.819802848E+02               0
GRID*               4374               01.6652670122E+02-1.745678392E+00+
*       -3.643143729E+02               0
GRID*               4375               01.5754625647E+02-1.671143940E+00+
*       -3.678088955E+02               0
GRID*               4376               01.4856396206E+02-1.895243416E+00+
*       -3.712906242E+02               0
GRID*               4377               01.6615885852E+02-1.746445823E+00+
*       -3.535680761E+02               0
GRID*               4378               01.5719657104E+02-1.646796427E+00+
*       -3.570910127E+02               0
GRID*               4379               01.4823341747E+02-1.895176197E+00+
*       -3.606009653E+02               0
GRID*               4380               01.6579101503E+02-1.747187162E+00+
*       -3.428217793E+02               0
GRID*               4381               01.5684686302E+02-1.621408684E+00+
*       -3.463731318E+02               0
GRID*               4382               01.4790380055E+02-1.943892708E+00+
*       -3.499113232E+02               0
GRID*               4383               01.6542317021E+02-1.747884924E+00+
*       -3.320754826E+02               0
GRID*               4384               01.5649713670E+02-1.595179860E+00+
*       -3.356552523E+02               0
GRID*               4385               01.4757485010E+02-2.027952705E+00+
*       -3.392216934E+02               0
GRID*               4386               01.6505532349E+02-1.748521084E+00+
*       -3.213291860E+02               0
GRID*               4387               01.5614739629E+02-1.568303785E+00+
*       -3.249373741E+02               0
GRID*               4388               01.4724618104E+02-2.126972728E+00+
*       -3.285320688E+02               0
GRID*               4389               01.6468747432E+02-1.749077068E+00+
*       -3.105828895E+02               0
GRID*               4390               01.5579764585E+02-1.540969174E+00+
*       -3.142194967E+02               0
GRID*               4391               01.4691754872E+02-2.228003286E+00+
*       -3.178424449E+02               0
GRID*               4392               01.6431962208E+02-1.749533743E+00+
*       -2.998365930E+02               0
GRID*               4393               01.5544788937E+02-1.513359839E+00+
*       -3.035016199E+02               0
GRID*               4394               01.4658879660E+02-2.322755501E+00+
*       -3.071528189E+02               0
GRID*               4395               01.6395176618E+02-1.749871396E+00+
*       -2.890902966E+02               0
GRID*               4396               01.5509813072E+02-1.485654898E+00+
*       -2.927837434E+02               0
GRID*               4397               01.4625982548E+02-2.405977626E+00+
*       -2.964631888E+02               0
GRID*               4398               01.6358390599E+02-1.750069731E+00+
*       -2.783440003E+02               0
GRID*               4399               01.5474837366E+02-1.458028985E+00+
*       -2.820658669E+02               0
GRID*               4400               01.4593057481E+02-2.474461423E+00+
*       -2.857735536E+02               0
GRID*               4401               01.6321604086E+02-1.750107844E+00+
*       -2.675977041E+02               0
GRID*               4402               01.5439862189E+02-1.430652462E+00+
*       -2.713479901E+02               0
GRID*               4403               01.4560101070E+02-2.526410944E+00+
*       -2.750839127E+02               0
GRID*               4404               01.6284817013E+02-1.749964218E+00+
*       -2.568514080E+02               0
GRID*               4405               01.5404887901E+02-1.403691628E+00+
*       -2.606301127E+02               0
GRID*               4406               01.4527111814E+02-2.561028747E+00+
*       -2.643942657E+02               0
GRID*               4407               01.6248029312E+02-1.749616704E+00+
*       -2.461051121E+02               0
GRID*               4408               01.5369914851E+02-1.377308933E+00+
*       -2.499122344E+02               0
GRID*               4409               01.4494089572E+02-2.578237446E+00+
*       -2.537046127E+02               0
GRID*               4410               01.6211240911E+02-1.749042504E+00+
*       -2.353588162E+02               0
GRID*               4411               01.5334943385E+02-1.351663199E+00+
*       -2.391943551E+02               0
GRID*               4412               01.4461035201E+02-2.578488364E+00+
*       -2.430149538E+02               0
GRID*               4413               01.6174451740E+02-1.748218160E+00+
*       -2.246125204E+02               0
GRID*               4414               01.5299973837E+02-1.326909832E+00+
*       -2.284764743E+02               0
GRID*               4415               01.4427950306E+02-2.562628099E+00+
*       -2.323252892E+02               0
GRID*               4416               01.6137661722E+02-1.747119535E+00+
*       -2.138662248E+02               0
GRID*               4417               01.5265006538E+02-1.303201052E+00+
*       -2.177585920E+02               0
GRID*               4418               01.4394837061E+02-2.531805033E+00+
*       -2.216356194E+02               0
GRID*               4419               01.6100870783E+02-1.745721798E+00+
*       -2.031199293E+02               0
GRID*               4420               01.5230041809E+02-1.280686114E+00+
*       -2.070407077E+02               0
GRID*               4421               01.4361698089E+02-2.487404742E+00+
*       -2.109459449E+02               0
GRID*               4422               01.6064078842E+02-1.743999405E+00+
*       -1.923736339E+02               0
GRID*               4423               01.5195079968E+02-1.259511546E+00+
*       -1.963228214E+02               0
GRID*               4424               01.4328536380E+02-2.431007958E+00+
*       -2.002562662E+02               0
GRID*               4425               01.6027285819E+02-1.741926085E+00+
*       -1.816273387E+02               0
GRID*               4426               01.5160121326E+02-1.239821383E+00+
*       -1.856049326E+02               0
GRID*               4427               01.4295355253E+02-2.364368443E+00+
*       -1.895665839E+02               0
GRID*               4428               01.5990491630E+02-1.739474819E+00+
*       -1.708810437E+02               0
GRID*               4429               01.5125166190E+02-1.221757416E+00+
*       -1.748870413E+02               0
GRID*               4430               01.4262158350E+02-2.289411973E+00+
*       -1.788768987E+02               0
GRID*               4431               01.5953696191E+02-1.736617822E+00+
*       -1.601347488E+02               0
GRID*               4432               01.5090214863E+02-1.205459442E+00+
*       -1.641691471E+02               0
GRID*               4433               01.4228949692E+02-2.208263242E+00+
*       -1.681872114E+02               0
GRID*               4434               01.5916899412E+02-1.733326524E+00+
*       -1.493884540E+02               0
GRID*               4435               01.5055267642E+02-1.191065530E+00+
*       -1.534512499E+02               0
GRID*               4436               01.4195733809E+02-2.123317918E+00+
*       -1.574975227E+02               0
GRID*               4437               01.5880101203E+02-1.729571553E+00+
*       -1.386421595E+02               0
GRID*               4438               01.5020324824E+02-1.178712291E+00+
*       -1.427333493E+02               0
GRID*               4439               01.4162516044E+02-2.037400532E+00+
*       -1.468078337E+02               0
GRID*               4440               01.5843301470E+02-1.725322712E+00+
*       -1.278958651E+02               0
GRID*               4441               01.4985386702E+02-1.168535165E+00+
*       -1.320154452E+02               0
GRID*               4442               01.4129303203E+02-1.954108455E+00+
*       -1.361181456E+02               0
GRID*               4443               01.5806500120E+02-1.720548957E+00+
*       -1.171495709E+02               0
GRID*               4444               01.4950453566E+02-1.160668713E+00+
*       -1.212975374E+02               0
GRID*               4445               01.4096105075E+02-1.878616261E+00+
*       -1.254284602E+02               0
GRID*               4446               01.5769697052E+02-1.715218378E+00+
*       -1.064032770E+02               0
GRID*               4447               01.4915525707E+02-1.155246938E+00+
*       -1.105796256E+02               0
GRID*               4448               01.4062938481E+02-1.819815832E+00+
*       -1.147387807E+02               0
GRID*               4449               01.5732892165E+02-1.709298177E+00+
*       -9.565698324E+01               0
GRID*               4450               01.4880603414E+02-1.152403605E+00+
*       -9.986170961E+01               0
GRID*               4451               01.4029839031E+02-1.796393490E+00+
*       -1.040491134E+02               0
GRID*               4452               01.5696085357E+02-1.702754644E+00+
*       -8.491068973E+01               0
GRID*               4453               01.4845686977E+02-1.152272596E+00+
*       -8.914378918E+01               0
GRID*               4454               01.3996780491E+02-1.793634355E+00+
*       -9.335945201E+01               0
GRID*               4455               01.5659276520E+02-1.695553131E+00+
*       -7.416439646E+01               0
GRID*               4456               01.4810776686E+02-1.154988273E+00+
*       -7.842586409E+01               0
GRID*               4457               01.3963722687E+02-1.791224655E+00+
*       -8.266979031E+01               0
GRID*               4458               01.5622465544E+02-1.687658034E+00+
*       -6.341810344E+01               0
GRID*               4459               01.4775872835E+02-1.160685875E+00+
*       -6.770793413E+01               0
GRID*               4460               01.3930663714E+02-1.788573086E+00+
*       -7.198012904E+01               0
GRID*               4461               01.5585652316E+02-1.679032760E+00+
*       -5.267181069E+01               0
GRID*               4462               01.4740975719E+02-1.169501931E+00+
*       -5.698999906E+01               0
GRID*               4463               01.3897597579E+02-1.784665039E+00+
*       -6.129047184E+01               0
GRID*               4464               01.5548836721E+02-1.669639706E+00+
*       -4.192551821E+01               0
GRID*               4465               01.4706085637E+02-1.181574717E+00+
*       -4.627205865E+01               0
GRID*               4466               01.3864483962E+02-1.773686622E+00+
*       -5.060084794E+01               0
GRID*               4467               01.5512018640E+02-1.659440233E+00+
*       -3.117922603E+01               0
GRID*               4468               01.4671202893E+02-1.197044727E+00+
*       -3.555411267E+01               0
GRID*               4469               01.3831332433E+02-1.756995903E+00+
*       -3.991125123E+01               0
GRID*               4470               01.5475197950E+02-1.648394633E+00+
*       -2.043293415E+01               0
GRID*               4471               01.4636327798E+02-1.216055202E+00+
*       -2.483616087E+01               0
GRID*               4472               01.3798162452E+02-1.737518962E+00+
*       -2.922166778E+01               0
GRID*               4473               01.5438374525E+02-1.636462105E+00+
*       -9.686642590E+00               0
GRID*               4474               01.4601460669E+02-1.238752685E+00+
*       -1.411820301E+01               0
GRID*               4475               01.3764989674E+02-1.717609853E+00+
*       -1.853208640E+01               0
GRID*               4476               01.5401548237E+02-1.623600723E+00+
*       1.0596486328E+00               0
GRID*               4477               01.4566601831E+02-1.265287634E+00+
*       -3.400238833E+00               0
GRID*               4478               01.3731826761E+02-1.699172340E+00+
*       -7.842498050E+00               0
GRID*               4479               01.5364718952E+02-1.609767405E+00+
*       1.1805939505E+01               0
GRID*               4480               01.4531751622E+02-1.295815084E+00+
*       7.3177319128E+00               0
GRID*               4481               01.3698683995E+02-1.683752596E+00+
*       2.8471046291E+00               0
GRID*               4482               01.5327885627E+02-1.594917931E+00+
*       2.2552247696E+01               0
GRID*               4483               01.4496909669E+02-1.330495516E+00+
*       1.8035722882E+01               0
GRID*               4484               01.3665569429E+02-1.672610027E+00+
*       1.3536733460E+01               0
GRID*               4485               01.5291040554E+02-1.579007656E+00+
*       3.3298717537E+01               0
GRID*               4486               01.4462069892E+02-1.369496554E+00+
*       2.8753854221E+01               0
GRID*               4487               01.3632487102E+02-1.666770129E+00+
*       2.4226444430E+01               0
GRID*               4488               01.5254150158E+02-1.561995505E+00+
*       4.4045985893E+01               0
GRID*               4489               01.4427203838E+02-1.412996522E+00+
*       3.9472664122E+01               0
GRID*               4490               01.3599429685E+02-1.667064439E+00+
*       3.4916478422E+01               0
GRID*               4491               01.5217110258E+02-1.543857082E+00+
*       5.4796053718E+01               0
GRID*               4492               01.4392220142E+02-1.461192041E+00+
*       5.0193869781E+01               0
GRID*               4493               01.3566358630E+02-1.674171934E+00+
*       4.5607631504E+01               0
GRID*               4494               01.5179645663E+02-1.524619810E+00+
*       6.5554308105E+01               0
GRID*               4495               01.4356876664E+02-1.514315518E+00+
*       6.0922028765E+01               0
GRID*               4496               01.3533154640E+02-1.688693338E+00+
*       5.6302166220E+01               0
GRID*               4497               01.5141056128E+02-1.504457971E+00+
*       7.6334860637E+01               0
GRID*               4498               01.4320592993E+02-1.572678080E+00+
*       7.1668138101E+01               0
GRID*               4499               01.3499484425E+02-1.711337565E+00+
*       6.7006224583E+01               0
GRID*               7162               01.6059196441E+02-3.931464316E+00+
*       -1.688628174E+03               0
GRID*               7163               01.4331135231E+02-6.109965956E+00+
*       -1.688628174E+03               0
GRID*               7164               01.2599375705E+02-7.908095656E+00+
*       -1.688628174E+03               0
GRID*               7165               01.0859915437E+02-8.860257204E+00+
*       -1.688628174E+03               0
GRID*               7166               09.1193771197E+01-9.498029146E+00+
*       -1.688628174E+03               0
GRID*               7167               07.3780570984E+01-9.732884407E+00+
*       -1.688628174E+03               0
GRID*               7168               01.7796015930E+02-2.688363314E+00+
*       -1.688628174E+03               0
GRID*               7169               06.0353788850E+01-9.630617939E+00+
*       -1.688628174E+03               0
GRID*               7170               04.6930588737E+01-9.288232556E+00+
*       -1.688628174E+03               0
GRID*               7171               03.3512784009E+01-8.769393794E+00+
*       -1.688628174E+03               0
GRID*               7172               02.0104282162E+01-8.060579008E+00+
*       -1.688628174E+03               0
GRID*               7173               06.7045226724E+00-7.191844416E+00+
*       -1.688628174E+03               0
GRID*               7174               0-6.688916976E+00-6.226524687E+00+
*       -1.688628174E+03               0
GRID*               7175               0-2.006959417E+01-5.106828899E+00+
*       -1.688628174E+03               0
GRID*               7176               0-3.345381927E+01-4.036799908E+00+
*       -1.688628174E+03               0
GRID*               7177               0-4.871596931E+01-3.217921806E+00+
*       -1.688628174E+03               0
GRID*               7178               0-6.324246216E+01-2.183076441E-01+
*       -1.688628174E+03               0
GRID*               7179               02.1178860823E+02-2.123648147E+00+
*       -1.688628174E+03               0
GRID*               7180               02.0051193609E+02-2.287787585E+00+
*       -1.688628174E+03               0
GRID*               7181               01.8923519076E+02-2.443068369E+00+
*       -1.688628174E+03               0
GRID*               7182               02.2247915649E+02-1.953354627E-01+
*       -1.688628174E+03               0
GRID*               7183               08.1137602263E+011.8210326083E+01+
*       -1.688628174E+03               0
GRID*               7184               09.5899533040E+011.7668815884E+01+
*       -1.688628174E+03               0
GRID*               7185               01.1065376670E+021.6943557545E+01+
*       -1.688628174E+03               0
GRID*               7186               01.2539315649E+021.5982206285E+01+
*       -1.688628174E+03               0
GRID*               7187               01.4010069687E+021.4598214508E+01+
*       -1.688628174E+03               0
GRID*               7188               01.5474584200E+021.2680209419E+01+
*       -1.688628174E+03               0
GRID*               7189               01.6930244905E+021.0172783781E+01+
*       -1.688628174E+03               0
GRID*               7190               01.8376554871E+027.1708064079E+00+
*       -1.688628174E+03               0
GRID*               7191               06.6368873596E+011.8470651627E+01+
*       -1.688628174E+03               0
GRID*               7192               0-2.422645437E+011.4927502094E+01+
*       -1.688628174E+03               0
GRID*               7193               0-8.598468259E+001.6280000348E+01+
*       -1.688628174E+03               0
GRID*               7194               07.0553438321E+001.7270542751E+01+
*       -1.688628171E+03               0
GRID*               7195               02.2725249122E+011.7945665747E+01+
*       -1.688628181E+03               0
GRID*               7196               03.8403961997E+011.8376256044E+01+
*       -1.688628224E+03               0
GRID*               7197               05.4087635040E+011.8549142838E+01+
*       -1.688628296E+03               0
GRID*               7198               0-3.978691101E+011.2973253250E+01+
*       -1.688628174E+03               0
GRID*               7199               0-5.825744010E+017.3820300358E+00+
*       -1.688628174E+03               0
GRID*               7200               0-4.927266788E+011.0958400793E+01+
*       -1.688628174E+03               0
GRID*               7201               01.9670586234E+024.1020625050E+00+
*       -1.688628174E+03               0
GRID*               7202               02.0987711659E+022.2739046942E+00+
*       -1.688628174E+03               0
$*
$* ELEMENT CARDS
$*
$*  NX Mesh Collector: WING
$*  NX Mesh: 2d_mesh(1)
CQUAD4         1       1       1     165     166       2          0.0000
CQUAD4         2       1       2     166     167       3          0.0000
CQUAD4         3       1       3     167     168       4          0.0000
CQUAD4         4       1       4     168     169       5          0.0000
CQUAD4         5       1       5     169     170       6          0.0000
CQUAD4         6       1       6     170     171       7          0.0000
CQUAD4         7       1       7     171     172       8          0.0000
CQUAD4         8       1       8     172     173       9          0.0000
CQUAD4         9       1       9     173     174      10          0.0000
CQUAD4        10       1      10     174     175      11          0.0000
CQUAD4        11       1      11     175     176      12          0.0000
CQUAD4        12       1      12     176     177      13          0.0000
CQUAD4        13       1      13     177     178      14          0.0000
CQUAD4        14       1      14     178     179      15          0.0000
CQUAD4        15       1      15     179     180      16          0.0000
CQUAD4        16       1      16     180     181      17          0.0000
CQUAD4        17       1      17     181     182      18          0.0000
CQUAD4        18       1      18     182     183      19          0.0000
CQUAD4        19       1      19     183     184      20          0.0000
CQUAD4        20       1      20     184     185      21          0.0000
CQUAD4        21       1      21     185     186      22          0.0000
CQUAD4        22       1      22     186     187      23          0.0000
CQUAD4        23       1      23     187     188      24          0.0000
CQUAD4        24       1      24     188     189      25          0.0000
CQUAD4        25       1      25     189     190      26          0.0000
CQUAD4        26       1      26     190     191      27          0.0000
CQUAD4        27       1      27     191     192      28          0.0000
CQUAD4        28       1      28     192     193      29          0.0000
CQUAD4        29       1      29     193     194      30          0.0000
CQUAD4        30       1      30     194     195      31          0.0000
CQUAD4        31       1      31     195     196      32          0.0000
CQUAD4        32       1      32     196     197      33          0.0000
CQUAD4        33       1      33     197     198      34          0.0000
CQUAD4        34       1      34     198     199      35          0.0000
CQUAD4        35       1      35     199     200      36          0.0000
CQUAD4        36       1      36     200     201      37          0.0000
CQUAD4        37       1      37     201     202      38          0.0000
CQUAD4        38       1      38     202     203      39          0.0000
CQUAD4        39       1      39     203     204      40          0.0000
CQUAD4        40       1      40     204     205      41          0.0000
CQUAD4        41       1      41     205     206      42          0.0000
CQUAD4        42       1      42     206     207      43          0.0000
CQUAD4        43       1      43     207     208      44          0.0000
CQUAD4        44       1      44     208     209      45          0.0000
CQUAD4        45       1      45     209     210      46          0.0000
CQUAD4        46       1      46     210     211      47          0.0000
CQUAD4        47       1      47     211     212      48          0.0000
CQUAD4        48       1      48     212     213      49          0.0000
CQUAD4        49       1      49     213     214      50          0.0000
CQUAD4        50       1      50     214     215      51          0.0000
CQUAD4        51       1      51     215     216      52          0.0000
CQUAD4        52       1      52     216     217      53          0.0000
CQUAD4        53       1      53     217     218      54          0.0000
CQUAD4        54       1      54     218     219      55          0.0000
CQUAD4        55       1      55     219     220      56          0.0000
CQUAD4        56       1      56     220     221      57          0.0000
CQUAD4        57       1      57     221     222      58          0.0000
CQUAD4        58       1      58     222     223      59          0.0000
CQUAD4        59       1      59     223     224      60          0.0000
CQUAD4        60       1      60     224     225      61          0.0000
CQUAD4        61       1      61     225     226      62          0.0000
CQUAD4        62       1      62     226     227      63          0.0000
CQUAD4        63       1      63     227     228      64          0.0000
CQUAD4        64       1      64     228     229      65          0.0000
CQUAD4        65       1      65     229     230      66          0.0000
CQUAD4        66       1      66     230     231      67          0.0000
CQUAD4        67       1      67     231     232      68          0.0000
CQUAD4        68       1      68     232     233      69          0.0000
CQUAD4        69       1      69     233     234      70          0.0000
CQUAD4        70       1      70     234     235      71          0.0000
CQUAD4        71       1      71     235     236      72          0.0000
CQUAD4        72       1      72     236     237      73          0.0000
CQUAD4        73       1      73     237     238      74          0.0000
CQUAD4        74       1      74     238     239      75          0.0000
CQUAD4        75       1      75     239     240      76          0.0000
CQUAD4        76       1      76     240     241      77          0.0000
CQUAD4        77       1      77     241     242      78          0.0000
CQUAD4        78       1      78     242     243      79          0.0000
CQUAD4        79       1      79     243     244      80          0.0000
CQUAD4        80       1      80     244     245      81          0.0000
CQUAD4        81       1      81     245     246      82          0.0000
CQUAD4        82       1      82     246     247      83          0.0000
CQUAD4        83       1      83     247     248      84          0.0000
CQUAD4        84       1      84     248     249      85          0.0000
CQUAD4        85       1      85     249     250      86          0.0000
CQUAD4        86       1      86     250     251      87          0.0000
CQUAD4        87       1      87     251     252      88          0.0000
CQUAD4        88       1      88     252     253      89          0.0000
CQUAD4        89       1      89     253     254      90          0.0000
CQUAD4        90       1      90     254     255      91          0.0000
CQUAD4        91       1      91     255     256      92          0.0000
CQUAD4        92       1      92     256     257      93          0.0000
CQUAD4        93       1      93     257     258      94          0.0000
CQUAD4        94       1      94     258     259      95          0.0000
CQUAD4        95       1      95     259     260      96          0.0000
CQUAD4        96       1      96     260     261      97          0.0000
CQUAD4        97       1      97     261     262      98          0.0000
CQUAD4        98       1      98     262     263      99          0.0000
CQUAD4        99       1      99     263     264     100          0.0000
CQUAD4       100       1     100     264     265     101          0.0000
CQUAD4       101       1     101     265     266     102          0.0000
CQUAD4       102       1     102     266     267     103          0.0000
CQUAD4       103       1     103     267     268     104          0.0000
CQUAD4       104       1     104     268     269     105          0.0000
CQUAD4       105       1     105     269     270     106          0.0000
CQUAD4       106       1     106     270     271     107          0.0000
CQUAD4       107       1     107     271     272     108          0.0000
CQUAD4       108       1     108     272     273     109          0.0000
CQUAD4       109       1     109     273     274     110          0.0000
CQUAD4       110       1     110     274     275     111          0.0000
CQUAD4       111       1     111     275     276     112          0.0000
CQUAD4       112       1     112     276     277     113          0.0000
CQUAD4       113       1     113     277     278     114          0.0000
CQUAD4       114       1     114     278     279     115          0.0000
CQUAD4       115       1     115     279     280     116          0.0000
CQUAD4       116       1     116     280     281     117          0.0000
CQUAD4       117       1     117     281     282     118          0.0000
CQUAD4       118       1     118     282     283     119          0.0000
CQUAD4       119       1     119     283     284     120          0.0000
CQUAD4       120       1     120     284     285     121          0.0000
CQUAD4       121       1     121     285     286     122          0.0000
CQUAD4       122       1     122     286     287     123          0.0000
CQUAD4       123       1     123     287     288     124          0.0000
CQUAD4       124       1     124     288     289     125          0.0000
CQUAD4       125       1     125     289     290     126          0.0000
CQUAD4       126       1     126     290     291     127          0.0000
CQUAD4       127       1     127     291     292     128          0.0000
CQUAD4       128       1     128     292     293     129          0.0000
CQUAD4       129       1     129     293     294     130          0.0000
CQUAD4       130       1     130     294     295     131          0.0000
CQUAD4       131       1     131     295     296     132          0.0000
CQUAD4       132       1     132     296     297     133          0.0000
CQUAD4       133       1     133     297     298     134          0.0000
CQUAD4       134       1     134     298     299     135          0.0000
CQUAD4       135       1     135     299     300     136          0.0000
CQUAD4       136       1     136     300     301     137          0.0000
CQUAD4       137       1     137     301     302     138          0.0000
CQUAD4       138       1     138     302     303     139          0.0000
CQUAD4       139       1     139     303     304     140          0.0000
CQUAD4       140       1     140     304     305     141          0.0000
CQUAD4       141       1     141     305     306     142          0.0000
CQUAD4       142       1     142     306     307     143          0.0000
CQUAD4       143       1     143     307     308     144          0.0000
CQUAD4       144       1     144     308     309     145          0.0000
CQUAD4       145       1     145     309     310     146          0.0000
CQUAD4       146       1     146     310     311     147          0.0000
CQUAD4       147       1     147     311     312     148          0.0000
CQUAD4       148       1     148     312     313     149          0.0000
CQUAD4       149       1     149     313     314     150          0.0000
CQUAD4       150       1     150     314     315     151          0.0000
CQUAD4       151       1     151     315     316     152          0.0000
CQUAD4       152       1     152     316     317     153          0.0000
CQUAD4       153       1     153     317     318     154          0.0000
CQUAD4       154       1     154     318     319     155          0.0000
CQUAD4       155       1     155     319     320     156          0.0000
CQUAD4       156       1     156     320     321     157          0.0000
CQUAD4       157       1     157     321     322     158          0.0000
CQUAD4       158       1     158     322     323     159          0.0000
CQUAD4       159       1     159     323     324     160          0.0000
CQUAD4       160       1     160     324     325     161          0.0000
CQUAD4       161       1     161     325     326     162          0.0000
CQUAD4       162       1     162     326     327     163          0.0000
CQUAD4       163       1     163     327     328     164          0.0000
CQUAD4       164       1     661     495       1     492          0.0000
CQUAD4       165       1     495     496     165       1          0.0000
CQUAD4       166       1     496     664     660     165          0.0000
CQUAD4       167       1     165     660     659     166          0.0000
CQUAD4       168       1     166     659     658     167          0.0000
CQUAD4       169       1     167     658     657     168          0.0000
CQUAD4       170       1     168     657     656     169          0.0000
CQUAD4       171       1     169     656     655     170          0.0000
CQUAD4       172       1     170     655     654     171          0.0000
CQUAD4       173       1     171     654     653     172          0.0000
CQUAD4       174       1     172     653     652     173          0.0000
CQUAD4       175       1     173     652     651     174          0.0000
CQUAD4       176       1     174     651     650     175          0.0000
CQUAD4       177       1     175     650     649     176          0.0000
CQUAD4       178       1     176     649     648     177          0.0000
CQUAD4       179       1     177     648     647     178          0.0000
CQUAD4       180       1     178     647     646     179          0.0000
CQUAD4       181       1     179     646     645     180          0.0000
CQUAD4       182       1     180     645     644     181          0.0000
CQUAD4       183       1     181     644     643     182          0.0000
CQUAD4       184       1     182     643     642     183          0.0000
CQUAD4       185       1     183     642     641     184          0.0000
CQUAD4       186       1     184     641     640     185          0.0000
CQUAD4       187       1     185     640     639     186          0.0000
CQUAD4       188       1     186     639     638     187          0.0000
CQUAD4       189       1     187     638     637     188          0.0000
CQUAD4       190       1     188     637     636     189          0.0000
CQUAD4       191       1     189     636     635     190          0.0000
CQUAD4       192       1     190     635     634     191          0.0000
CQUAD4       193       1     191     634     633     192          0.0000
CQUAD4       194       1     192     633     632     193          0.0000
CQUAD4       195       1     193     632     631     194          0.0000
CQUAD4       196       1     194     631     630     195          0.0000
CQUAD4       197       1     195     630     629     196          0.0000
CQUAD4       198       1     196     629     628     197          0.0000
CQUAD4       199       1     197     628     627     198          0.0000
CQUAD4       200       1     198     627     626     199          0.0000
CQUAD4       201       1     199     626     625     200          0.0000
CQUAD4       202       1     200     625     624     201          0.0000
CQUAD4       203       1     201     624     623     202          0.0000
CQUAD4       204       1     202     623     622     203          0.0000
CQUAD4       205       1     203     622     621     204          0.0000
CQUAD4       206       1     204     621     620     205          0.0000
CQUAD4       207       1     205     620     619     206          0.0000
CQUAD4       208       1     206     619     618     207          0.0000
CQUAD4       209       1     207     618     617     208          0.0000
CQUAD4       210       1     208     617     616     209          0.0000
CQUAD4       211       1     209     616     615     210          0.0000
CQUAD4       212       1     210     615     614     211          0.0000
CQUAD4       213       1     211     614     613     212          0.0000
CQUAD4       214       1     212     613     612     213          0.0000
CQUAD4       215       1     213     612     611     214          0.0000
CQUAD4       216       1     214     611     610     215          0.0000
CQUAD4       217       1     215     610     609     216          0.0000
CQUAD4       218       1     216     609     608     217          0.0000
CQUAD4       219       1     217     608     607     218          0.0000
CQUAD4       220       1     218     607     606     219          0.0000
CQUAD4       221       1     219     606     605     220          0.0000
CQUAD4       222       1     220     605     604     221          0.0000
CQUAD4       223       1     221     604     603     222          0.0000
CQUAD4       224       1     222     603     602     223          0.0000
CQUAD4       225       1     223     602     601     224          0.0000
CQUAD4       226       1     224     601     600     225          0.0000
CQUAD4       227       1     225     600     599     226          0.0000
CQUAD4       228       1     226     599     598     227          0.0000
CQUAD4       229       1     227     598     597     228          0.0000
CQUAD4       230       1     228     597     596     229          0.0000
CQUAD4       231       1     229     596     595     230          0.0000
CQUAD4       232       1     230     595     594     231          0.0000
CQUAD4       233       1     231     594     593     232          0.0000
CQUAD4       234       1     232     593     592     233          0.0000
CQUAD4       235       1     233     592     591     234          0.0000
CQUAD4       236       1     234     591     590     235          0.0000
CQUAD4       237       1     235     590     589     236          0.0000
CQUAD4       238       1     236     589     588     237          0.0000
CQUAD4       239       1     237     588     587     238          0.0000
CQUAD4       240       1     238     587     586     239          0.0000
CQUAD4       241       1     239     586     585     240          0.0000
CQUAD4       242       1     240     585     584     241          0.0000
CQUAD4       243       1     241     584     583     242          0.0000
CQUAD4       244       1     242     583     582     243          0.0000
CQUAD4       245       1     243     582     581     244          0.0000
CQUAD4       246       1     244     581     580     245          0.0000
CQUAD4       247       1     245     580     579     246          0.0000
CQUAD4       248       1     246     579     578     247          0.0000
CQUAD4       249       1     247     578     577     248          0.0000
CQUAD4       250       1     248     577     576     249          0.0000
CQUAD4       251       1     249     576     575     250          0.0000
CQUAD4       252       1     250     575     574     251          0.0000
CQUAD4       253       1     251     574     573     252          0.0000
CQUAD4       254       1     252     573     572     253          0.0000
CQUAD4       255       1     253     572     571     254          0.0000
CQUAD4       256       1     254     571     570     255          0.0000
CQUAD4       257       1     255     570     569     256          0.0000
CQUAD4       258       1     256     569     568     257          0.0000
CQUAD4       259       1     257     568     567     258          0.0000
CQUAD4       260       1     258     567     566     259          0.0000
CQUAD4       261       1     259     566     565     260          0.0000
CQUAD4       262       1     260     565     564     261          0.0000
CQUAD4       263       1     261     564     563     262          0.0000
CQUAD4       264       1     262     563     562     263          0.0000
CQUAD4       265       1     263     562     561     264          0.0000
CQUAD4       266       1     264     561     560     265          0.0000
CQUAD4       267       1     265     560     559     266          0.0000
CQUAD4       268       1     266     559     558     267          0.0000
CQUAD4       269       1     267     558     557     268          0.0000
CQUAD4       270       1     268     557     556     269          0.0000
CQUAD4       271       1     269     556     555     270          0.0000
CQUAD4       272       1     270     555     554     271          0.0000
CQUAD4       273       1     271     554     553     272          0.0000
CQUAD4       274       1     272     553     552     273          0.0000
CQUAD4       275       1     273     552     551     274          0.0000
CQUAD4       276       1     274     551     550     275          0.0000
CQUAD4       277       1     275     550     549     276          0.0000
CQUAD4       278       1     276     549     548     277          0.0000
CQUAD4       279       1     277     548     547     278          0.0000
CQUAD4       280       1     278     547     546     279          0.0000
CQUAD4       281       1     279     546     545     280          0.0000
CQUAD4       282       1     280     545     544     281          0.0000
CQUAD4       283       1     281     544     543     282          0.0000
CQUAD4       284       1     282     543     542     283          0.0000
CQUAD4       285       1     283     542     541     284          0.0000
CQUAD4       286       1     284     541     540     285          0.0000
CQUAD4       287       1     285     540     539     286          0.0000
CQUAD4       288       1     286     539     538     287          0.0000
CQUAD4       289       1     287     538     537     288          0.0000
CQUAD4       290       1     288     537     536     289          0.0000
CQUAD4       291       1     289     536     535     290          0.0000
CQUAD4       292       1     290     535     534     291          0.0000
CQUAD4       293       1     291     534     533     292          0.0000
CQUAD4       294       1     292     533     532     293          0.0000
CQUAD4       295       1     293     532     531     294          0.0000
CQUAD4       296       1     294     531     530     295          0.0000
CQUAD4       297       1     295     530     529     296          0.0000
CQUAD4       298       1     296     529     528     297          0.0000
CQUAD4       299       1     297     528     527     298          0.0000
CQUAD4       300       1     298     527     526     299          0.0000
CQUAD4       301       1     299     526     525     300          0.0000
CQUAD4       302       1     300     525     524     301          0.0000
CQUAD4       303       1     301     524     523     302          0.0000
CQUAD4       304       1     302     523     522     303          0.0000
CQUAD4       305       1     303     522     521     304          0.0000
CQUAD4       306       1     304     521     520     305          0.0000
CQUAD4       307       1     305     520     519     306          0.0000
CQUAD4       308       1     306     519     518     307          0.0000
CQUAD4       309       1     307     518     517     308          0.0000
CQUAD4       310       1     308     517     516     309          0.0000
CQUAD4       311       1     309     516     515     310          0.0000
CQUAD4       312       1     310     515     514     311          0.0000
CQUAD4       313       1     311     514     513     312          0.0000
CQUAD4       314       1     312     513     512     313          0.0000
CQUAD4       315       1     313     512     511     314          0.0000
CQUAD4       316       1     314     511     510     315          0.0000
CQUAD4       317       1     315     510     509     316          0.0000
CQUAD4       318       1     316     509     508     317          0.0000
CQUAD4       319       1     317     508     507     318          0.0000
CQUAD4       320       1     318     507     506     319          0.0000
CQUAD4       321       1     319     506     505     320          0.0000
CQUAD4       322       1     320     505     504     321          0.0000
CQUAD4       323       1     321     504     503     322          0.0000
CQUAD4       324       1     322     503     502     323          0.0000
CQUAD4       325       1     323     502     501     324          0.0000
CQUAD4       326       1     324     501     500     325          0.0000
CQUAD4       327       1     325     500     499     326          0.0000
CQUAD4       328       1     326     499     498     327          0.0000
CQUAD4       329       1     327     498     497     328          0.0000
CQUAD4       330       1     328     497     663     493          0.0000
CQUAD4       331       1     164     328     493     494          0.0000
CQUAD4       332       1     329     164     494     662          0.0000
CQUAD4       333       1     330     163     164     329          0.0000
CQUAD4       334       1     331     162     163     330          0.0000
CQUAD4       335       1     332     161     162     331          0.0000
CQUAD4       336       1     333     160     161     332          0.0000
CQUAD4       337       1     334     159     160     333          0.0000
CQUAD4       338       1     335     158     159     334          0.0000
CQUAD4       339       1     336     157     158     335          0.0000
CQUAD4       340       1     337     156     157     336          0.0000
CQUAD4       341       1     338     155     156     337          0.0000
CQUAD4       342       1     339     154     155     338          0.0000
CQUAD4       343       1     340     153     154     339          0.0000
CQUAD4       344       1     341     152     153     340          0.0000
CQUAD4       345       1     342     151     152     341          0.0000
CQUAD4       346       1     343     150     151     342          0.0000
CQUAD4       347       1     344     149     150     343          0.0000
CQUAD4       348       1     345     148     149     344          0.0000
CQUAD4       349       1     346     147     148     345          0.0000
CQUAD4       350       1     347     146     147     346          0.0000
CQUAD4       351       1     348     145     146     347          0.0000
CQUAD4       352       1     349     144     145     348          0.0000
CQUAD4       353       1     350     143     144     349          0.0000
CQUAD4       354       1     351     142     143     350          0.0000
CQUAD4       355       1     352     141     142     351          0.0000
CQUAD4       356       1     353     140     141     352          0.0000
CQUAD4       357       1     354     139     140     353          0.0000
CQUAD4       358       1     355     138     139     354          0.0000
CQUAD4       359       1     356     137     138     355          0.0000
CQUAD4       360       1     357     136     137     356          0.0000
CQUAD4       361       1     358     135     136     357          0.0000
CQUAD4       362       1     359     134     135     358          0.0000
CQUAD4       363       1     360     133     134     359          0.0000
CQUAD4       364       1     361     132     133     360          0.0000
CQUAD4       365       1     362     131     132     361          0.0000
CQUAD4       366       1     363     130     131     362          0.0000
CQUAD4       367       1     364     129     130     363          0.0000
CQUAD4       368       1     365     128     129     364          0.0000
CQUAD4       369       1     366     127     128     365          0.0000
CQUAD4       370       1     367     126     127     366          0.0000
CQUAD4       371       1     368     125     126     367          0.0000
CQUAD4       372       1     369     124     125     368          0.0000
CQUAD4       373       1     370     123     124     369          0.0000
CQUAD4       374       1     371     122     123     370          0.0000
CQUAD4       375       1     372     121     122     371          0.0000
CQUAD4       376       1     373     120     121     372          0.0000
CQUAD4       377       1     374     119     120     373          0.0000
CQUAD4       378       1     375     118     119     374          0.0000
CQUAD4       379       1     376     117     118     375          0.0000
CQUAD4       380       1     377     116     117     376          0.0000
CQUAD4       381       1     378     115     116     377          0.0000
CQUAD4       382       1     379     114     115     378          0.0000
CQUAD4       383       1     380     113     114     379          0.0000
CQUAD4       384       1     381     112     113     380          0.0000
CQUAD4       385       1     382     111     112     381          0.0000
CQUAD4       386       1     383     110     111     382          0.0000
CQUAD4       387       1     384     109     110     383          0.0000
CQUAD4       388       1     385     108     109     384          0.0000
CQUAD4       389       1     386     107     108     385          0.0000
CQUAD4       390       1     387     106     107     386          0.0000
CQUAD4       391       1     388     105     106     387          0.0000
CQUAD4       392       1     389     104     105     388          0.0000
CQUAD4       393       1     390     103     104     389          0.0000
CQUAD4       394       1     391     102     103     390          0.0000
CQUAD4       395       1     392     101     102     391          0.0000
CQUAD4       396       1     393     100     101     392          0.0000
CQUAD4       397       1     394      99     100     393          0.0000
CQUAD4       398       1     395      98      99     394          0.0000
CQUAD4       399       1     396      97      98     395          0.0000
CQUAD4       400       1     397      96      97     396          0.0000
CQUAD4       401       1     398      95      96     397          0.0000
CQUAD4       402       1     399      94      95     398          0.0000
CQUAD4       403       1     400      93      94     399          0.0000
CQUAD4       404       1     401      92      93     400          0.0000
CQUAD4       405       1     402      91      92     401          0.0000
CQUAD4       406       1     403      90      91     402          0.0000
CQUAD4       407       1     404      89      90     403          0.0000
CQUAD4       408       1     405      88      89     404          0.0000
CQUAD4       409       1     406      87      88     405          0.0000
CQUAD4       410       1     407      86      87     406          0.0000
CQUAD4       411       1     408      85      86     407          0.0000
CQUAD4       412       1     409      84      85     408          0.0000
CQUAD4       413       1     410      83      84     409          0.0000
CQUAD4       414       1     411      82      83     410          0.0000
CQUAD4       415       1     412      81      82     411          0.0000
CQUAD4       416       1     413      80      81     412          0.0000
CQUAD4       417       1     414      79      80     413          0.0000
CQUAD4       418       1     415      78      79     414          0.0000
CQUAD4       419       1     416      77      78     415          0.0000
CQUAD4       420       1     417      76      77     416          0.0000
CQUAD4       421       1     418      75      76     417          0.0000
CQUAD4       422       1     419      74      75     418          0.0000
CQUAD4       423       1     420      73      74     419          0.0000
CQUAD4       424       1     421      72      73     420          0.0000
CQUAD4       425       1     422      71      72     421          0.0000
CQUAD4       426       1     423      70      71     422          0.0000
CQUAD4       427       1     424      69      70     423          0.0000
CQUAD4       428       1     425      68      69     424          0.0000
CQUAD4       429       1     426      67      68     425          0.0000
CQUAD4       430       1     427      66      67     426          0.0000
CQUAD4       431       1     428      65      66     427          0.0000
CQUAD4       432       1     429      64      65     428          0.0000
CQUAD4       433       1     430      63      64     429          0.0000
CQUAD4       434       1     431      62      63     430          0.0000
CQUAD4       435       1     432      61      62     431          0.0000
CQUAD4       436       1     433      60      61     432          0.0000
CQUAD4       437       1     434      59      60     433          0.0000
CQUAD4       438       1     435      58      59     434          0.0000
CQUAD4       439       1     436      57      58     435          0.0000
CQUAD4       440       1     437      56      57     436          0.0000
CQUAD4       441       1     438      55      56     437          0.0000
CQUAD4       442       1     439      54      55     438          0.0000
CQUAD4       443       1     440      53      54     439          0.0000
CQUAD4       444       1     441      52      53     440          0.0000
CQUAD4       445       1     442      51      52     441          0.0000
CQUAD4       446       1     443      50      51     442          0.0000
CQUAD4       447       1     444      49      50     443          0.0000
CQUAD4       448       1     445      48      49     444          0.0000
CQUAD4       449       1     446      47      48     445          0.0000
CQUAD4       450       1     447      46      47     446          0.0000
CQUAD4       451       1     448      45      46     447          0.0000
CQUAD4       452       1     449      44      45     448          0.0000
CQUAD4       453       1     450      43      44     449          0.0000
CQUAD4       454       1     451      42      43     450          0.0000
CQUAD4       455       1     452      41      42     451          0.0000
CQUAD4       456       1     453      40      41     452          0.0000
CQUAD4       457       1     454      39      40     453          0.0000
CQUAD4       458       1     455      38      39     454          0.0000
CQUAD4       459       1     456      37      38     455          0.0000
CQUAD4       460       1     457      36      37     456          0.0000
CQUAD4       461       1     458      35      36     457          0.0000
CQUAD4       462       1     459      34      35     458          0.0000
CQUAD4       463       1     460      33      34     459          0.0000
CQUAD4       464       1     461      32      33     460          0.0000
CQUAD4       465       1     462      31      32     461          0.0000
CQUAD4       466       1     463      30      31     462          0.0000
CQUAD4       467       1     464      29      30     463          0.0000
CQUAD4       468       1     465      28      29     464          0.0000
CQUAD4       469       1     466      27      28     465          0.0000
CQUAD4       470       1     467      26      27     466          0.0000
CQUAD4       471       1     468      25      26     467          0.0000
CQUAD4       472       1     469      24      25     468          0.0000
CQUAD4       473       1     470      23      24     469          0.0000
CQUAD4       474       1     471      22      23     470          0.0000
CQUAD4       475       1     472      21      22     471          0.0000
CQUAD4       476       1     473      20      21     472          0.0000
CQUAD4       477       1     474      19      20     473          0.0000
CQUAD4       478       1     475      18      19     474          0.0000
CQUAD4       479       1     476      17      18     475          0.0000
CQUAD4       480       1     477      16      17     476          0.0000
CQUAD4       481       1     478      15      16     477          0.0000
CQUAD4       482       1     479      14      15     478          0.0000
CQUAD4       483       1     480      13      14     479          0.0000
CQUAD4       484       1     481      12      13     480          0.0000
CQUAD4       485       1     482      11      12     481          0.0000
CQUAD4       486       1     483      10      11     482          0.0000
CQUAD4       487       1     484       9      10     483          0.0000
CQUAD4       488       1     485       8       9     484          0.0000
CQUAD4       489       1     486       7       8     485          0.0000
CQUAD4       490       1     487       6       7     486          0.0000
CQUAD4       491       1     488       5       6     487          0.0000
CQUAD4       492       1     489       4       5     488          0.0000
CQUAD4       493       1     490       3       4     489          0.0000
CQUAD4       494       1     491       2       3     490          0.0000
CQUAD4       495       1     492       1       2     491          0.0000
$*  NX Mesh Collector: WING
$*  NX Mesh: 2d_mesh(3)
CQUAD4       870       1    1020    1022    1023    1021          0.0000
CQUAD4       871       1    1022    1024    1025    1023          0.0000
CQUAD4       872       1    1024    1026    1027    1025          0.0000
CQUAD4       873       1    1026    1028    1029    1027          0.0000
CQUAD4       874       1    1028    1030    1031    1029          0.0000
CQUAD4       875       1    1030    1032    1033    1031          0.0000
CQUAD4       876       1    1032    1034    1035    1033          0.0000
CQUAD4       877       1    1034    1036    1037    1035          0.0000
CQUAD4       878       1    1036    1038    1039    1037          0.0000
CQUAD4       879       1    1038    1040    1041    1039          0.0000
CQUAD4       880       1    1040    1042    1043    1041          0.0000
CQUAD4       881       1    1042    1044    1045    1043          0.0000
CQUAD4       882       1    1044    1046    1047    1045          0.0000
CQUAD4       883       1    1046    1048    1049    1047          0.0000
CQUAD4       884       1    1048    1050    1051    1049          0.0000
CQUAD4       885       1    1050    1052    1053    1051          0.0000
CQUAD4       886       1    1052    1054    1055    1053          0.0000
CQUAD4       887       1    1054    1056    1057    1055          0.0000
CQUAD4       888       1    1056    1058    1059    1057          0.0000
CQUAD4       889       1    1058    1060    1061    1059          0.0000
CQUAD4       890       1    1060    1062    1063    1061          0.0000
CQUAD4       891       1    1062    1064    1065    1063          0.0000
CQUAD4       892       1    1064    1066    1067    1065          0.0000
CQUAD4       893       1    1066    1068    1069    1067          0.0000
CQUAD4       894       1    1068    1070    1071    1069          0.0000
CQUAD4       895       1    1070    1072    1073    1071          0.0000
CQUAD4       896       1    1072    1074    1075    1073          0.0000
CQUAD4       897       1    1074    1076    1077    1075          0.0000
CQUAD4       898       1    1076    1078    1079    1077          0.0000
CQUAD4       899       1    1078    1080    1081    1079          0.0000
CQUAD4       900       1    1080    1082    1083    1081          0.0000
CQUAD4       901       1    1082    1084    1085    1083          0.0000
CQUAD4       902       1    1084    1086    1087    1085          0.0000
CQUAD4       903       1    1086    1088    1089    1087          0.0000
CQUAD4       904       1    1088    1090    1091    1089          0.0000
CQUAD4       905       1    1090    1092    1093    1091          0.0000
CQUAD4       906       1    1092    1094    1095    1093          0.0000
CQUAD4       907       1    1094    1096    1097    1095          0.0000
CQUAD4       908       1    1096    1098    1099    1097          0.0000
CQUAD4       909       1    1098    1100    1101    1099          0.0000
CQUAD4       910       1    1100    1102    1103    1101          0.0000
CQUAD4       911       1    1102    1104    1105    1103          0.0000
CQUAD4       912       1    1104    1106    1107    1105          0.0000
CQUAD4       913       1    1106    1108    1109    1107          0.0000
CQUAD4       914       1    1108    1110    1111    1109          0.0000
CQUAD4       915       1    1110    1112    1113    1111          0.0000
CQUAD4       916       1    1112    1114    1115    1113          0.0000
CQUAD4       917       1    1114    1116    1117    1115          0.0000
CQUAD4       918       1    1116    1118    1119    1117          0.0000
CQUAD4       919       1    1118    1120    1121    1119          0.0000
CQUAD4       920       1    1120    1122    1123    1121          0.0000
CQUAD4       921       1    1122    1124    1125    1123          0.0000
CQUAD4       922       1    1124    1126    1127    1125          0.0000
CQUAD4       923       1    1126    1128    1129    1127          0.0000
CQUAD4       924       1    1128    1130    1131    1129          0.0000
CQUAD4       925       1    1130    1132    1133    1131          0.0000
CQUAD4       926       1    1132    1134    1135    1133          0.0000
CQUAD4       927       1    1134    1136    1137    1135          0.0000
CQUAD4       928       1    1136    1138    1139    1137          0.0000
CQUAD4       929       1    1138    1140    1141    1139          0.0000
CQUAD4       930       1    1140    1142    1143    1141          0.0000
CQUAD4       931       1    1142    1144    1145    1143          0.0000
CQUAD4       932       1    1144    1146    1147    1145          0.0000
CQUAD4       933       1    1146    1148    1149    1147          0.0000
CQUAD4       934       1    1148    1150    1151    1149          0.0000
CQUAD4       935       1    1150    1152    1153    1151          0.0000
CQUAD4       936       1    1152    1154    1155    1153          0.0000
CQUAD4       937       1    1154    1156    1157    1155          0.0000
CQUAD4       938       1    1156    1158    1159    1157          0.0000
CQUAD4       939       1    1158    1160    1161    1159          0.0000
CQUAD4       940       1    1160    1162    1163    1161          0.0000
CQUAD4       941       1    1162    1164    1165    1163          0.0000
CQUAD4       942       1    1164    1166    1167    1165          0.0000
CQUAD4       943       1    1166    1168    1169    1167          0.0000
CQUAD4       944       1    1168    1170    1171    1169          0.0000
CQUAD4       945       1    1170    1172    1173    1171          0.0000
CQUAD4       946       1    1172    1174    1175    1173          0.0000
CQUAD4       947       1    1174    1176    1177    1175          0.0000
CQUAD4       948       1    1176    1178    1179    1177          0.0000
CQUAD4       949       1    1178    1180    1181    1179          0.0000
CQUAD4       950       1    1180    1182    1183    1181          0.0000
CQUAD4       951       1    1182    1184    1185    1183          0.0000
CQUAD4       952       1    1184    1186    1187    1185          0.0000
CQUAD4       953       1    1186    1188    1189    1187          0.0000
CQUAD4       954       1    1188    1190    1191    1189          0.0000
CQUAD4       955       1    1190    1192    1193    1191          0.0000
CQUAD4       956       1    1192    1194    1195    1193          0.0000
CQUAD4       957       1    1194    1196    1197    1195          0.0000
CQUAD4       958       1    1196    1198    1199    1197          0.0000
CQUAD4       959       1    1198    1200    1201    1199          0.0000
CQUAD4       960       1    1200    1202    1203    1201          0.0000
CQUAD4       961       1    1202    1204    1205    1203          0.0000
CQUAD4       962       1    1204    1206    1207    1205          0.0000
CQUAD4       963       1    1206    1208    1209    1207          0.0000
CQUAD4       964       1    1208    1210    1211    1209          0.0000
CQUAD4       965       1    1210    1212    1213    1211          0.0000
CQUAD4       966       1    1212    1214    1215    1213          0.0000
CQUAD4       967       1    1214    1216    1217    1215          0.0000
CQUAD4       968       1    1216    1218    1219    1217          0.0000
CQUAD4       969       1    1218    1220    1221    1219          0.0000
CQUAD4       970       1    1220    1222    1223    1221          0.0000
CQUAD4       971       1    1222    1224    1225    1223          0.0000
CQUAD4       972       1    1224    1226    1227    1225          0.0000
CQUAD4       973       1    1226    1228    1229    1227          0.0000
CQUAD4       974       1    1228    1230    1231    1229          0.0000
CQUAD4       975       1    1230    1232    1233    1231          0.0000
CQUAD4       976       1    1232    1234    1235    1233          0.0000
CQUAD4       977       1    1234    1236    1237    1235          0.0000
CQUAD4       978       1    1236    1238    1239    1237          0.0000
CQUAD4       979       1    1238    1240    1241    1239          0.0000
CQUAD4       980       1    1240    1242    1243    1241          0.0000
CQUAD4       981       1    1242    1244    1245    1243          0.0000
CQUAD4       982       1    1244    1246    1247    1245          0.0000
CQUAD4       983       1    1246    1248    1249    1247          0.0000
CQUAD4       984       1    1248    1250    1251    1249          0.0000
CQUAD4       985       1    1250    1252    1253    1251          0.0000
CQUAD4       986       1    1252    1254    1255    1253          0.0000
CQUAD4       987       1    1254    1256    1257    1255          0.0000
CQUAD4       988       1    1256    1258    1259    1257          0.0000
CQUAD4       989       1    1258    1260    1261    1259          0.0000
CQUAD4       990       1    1260    1262    1263    1261          0.0000
CQUAD4       991       1    1262    1264    1265    1263          0.0000
CQUAD4       992       1    1264    1266    1267    1265          0.0000
CQUAD4       993       1    1266    1268    1269    1267          0.0000
CQUAD4       994       1    1268    1270    1271    1269          0.0000
CQUAD4       995       1    1270    1272    1273    1271          0.0000
CQUAD4       996       1    1272    1274    1275    1273          0.0000
CQUAD4       997       1    1274    1276    1277    1275          0.0000
CQUAD4       998       1    1276    1278    1279    1277          0.0000
CQUAD4       999       1    1278    1280    1281    1279          0.0000
CQUAD4      1000       1    1280    1282    1283    1281          0.0000
CQUAD4      1001       1    1282    1284    1285    1283          0.0000
CQUAD4      1002       1    1284    1286    1287    1285          0.0000
CQUAD4      1003       1    1286    1288    1289    1287          0.0000
CQUAD4      1004       1    1288    1290    1291    1289          0.0000
CQUAD4      1005       1    1290    1292    1293    1291          0.0000
CQUAD4      1006       1    1292    1294    1295    1293          0.0000
CQUAD4      1007       1    1294    1296    1297    1295          0.0000
CQUAD4      1008       1    1296    1298    1299    1297          0.0000
CQUAD4      1009       1    1298    1300    1301    1299          0.0000
CQUAD4      1010       1    1300    1302    1303    1301          0.0000
CQUAD4      1011       1    1302    1304    1305    1303          0.0000
CQUAD4      1012       1    1304    1306    1307    1305          0.0000
CQUAD4      1013       1    1306    1308    1309    1307          0.0000
CQUAD4      1014       1    1308    1310    1311    1309          0.0000
CQUAD4      1015       1    1310    1312    1313    1311          0.0000
CQUAD4      1016       1    1312    1314    1315    1313          0.0000
CQUAD4      1017       1    1314    1316    1317    1315          0.0000
CQUAD4      1018       1    1316    1318    1319    1317          0.0000
CQUAD4      1019       1    1318    1320    1321    1319          0.0000
CQUAD4      1020       1    1320    1322    1323    1321          0.0000
CQUAD4      1021       1    1322    1324    1325    1323          0.0000
CQUAD4      1022       1    1324    1326    1327    1325          0.0000
CQUAD4      1023       1    1326    1328    1329    1327          0.0000
CQUAD4      1024       1    1328    1330    1331    1329          0.0000
CQUAD4      1025       1    1330    1332    1333    1331          0.0000
CQUAD4      1026       1    1332    1334    1335    1333          0.0000
CQUAD4      1027       1    1334    1336    1337    1335          0.0000
CQUAD4      1028       1    1336    1338    1339    1337          0.0000
CQUAD4      1029       1    1338    1340    1341    1339          0.0000
CQUAD4      1030       1    1340    1342    1343    1341          0.0000
CQUAD4      1031       1    1342    1344    1345    1343          0.0000
CQUAD4      1032       1    1344    1346    1347    1345          0.0000
CQUAD4      1033       1    4005    3816    1020    3652          0.0000
CQUAD4      1034       1    3816    3815    1022    1020          0.0000
CQUAD4      1035       1    3815    3814    1024    1022          0.0000
CQUAD4      1036       1    3814    3813    1026    1024          0.0000
CQUAD4      1037       1    3813    3812    1028    1026          0.0000
CQUAD4      1038       1    3812    3811    1030    1028          0.0000
CQUAD4      1039       1    3811    3810    1032    1030          0.0000
CQUAD4      1040       1    3810    3809    1034    1032          0.0000
CQUAD4      1041       1    3809    3808    1036    1034          0.0000
CQUAD4      1042       1    3808    3807    1038    1036          0.0000
CQUAD4      1043       1    3807    3806    1040    1038          0.0000
CQUAD4      1044       1    3806    3805    1042    1040          0.0000
CQUAD4      1045       1    3805    3804    1044    1042          0.0000
CQUAD4      1046       1    3804    3803    1046    1044          0.0000
CQUAD4      1047       1    3803    3802    1048    1046          0.0000
CQUAD4      1048       1    3802    3801    1050    1048          0.0000
CQUAD4      1049       1    3801    3800    1052    1050          0.0000
CQUAD4      1050       1    3800    3799    1054    1052          0.0000
CQUAD4      1051       1    3799    3798    1056    1054          0.0000
CQUAD4      1052       1    3798    3797    1058    1056          0.0000
CQUAD4      1053       1    3797    3796    1060    1058          0.0000
CQUAD4      1054       1    3796    3795    1062    1060          0.0000
CQUAD4      1055       1    3795    3794    1064    1062          0.0000
CQUAD4      1056       1    3794    3793    1066    1064          0.0000
CQUAD4      1057       1    3793    3792    1068    1066          0.0000
CQUAD4      1058       1    3792    3791    1070    1068          0.0000
CQUAD4      1059       1    3791    3790    1072    1070          0.0000
CQUAD4      1060       1    3790    3789    1074    1072          0.0000
CQUAD4      1061       1    3789    3788    1076    1074          0.0000
CQUAD4      1062       1    3788    3787    1078    1076          0.0000
CQUAD4      1063       1    3787    3786    1080    1078          0.0000
CQUAD4      1064       1    3786    3785    1082    1080          0.0000
CQUAD4      1065       1    3785    3784    1084    1082          0.0000
CQUAD4      1066       1    3784    3783    1086    1084          0.0000
CQUAD4      1067       1    3783    3782    1088    1086          0.0000
CQUAD4      1068       1    3782    3781    1090    1088          0.0000
CQUAD4      1069       1    3781    3780    1092    1090          0.0000
CQUAD4      1070       1    3780    3779    1094    1092          0.0000
CQUAD4      1071       1    3779    3778    1096    1094          0.0000
CQUAD4      1072       1    3778    3777    1098    1096          0.0000
CQUAD4      1073       1    3777    3776    1100    1098          0.0000
CQUAD4      1074       1    3776    3775    1102    1100          0.0000
CQUAD4      1075       1    3775    3774    1104    1102          0.0000
CQUAD4      1076       1    3774    3773    1106    1104          0.0000
CQUAD4      1077       1    3773    3772    1108    1106          0.0000
CQUAD4      1078       1    3772    3771    1110    1108          0.0000
CQUAD4      1079       1    3771    3770    1112    1110          0.0000
CQUAD4      1080       1    3770    3769    1114    1112          0.0000
CQUAD4      1081       1    3769    3768    1116    1114          0.0000
CQUAD4      1082       1    3768    3767    1118    1116          0.0000
CQUAD4      1083       1    3767    3766    1120    1118          0.0000
CQUAD4      1084       1    3766    3765    1122    1120          0.0000
CQUAD4      1085       1    3765    3764    1124    1122          0.0000
CQUAD4      1086       1    3764    3763    1126    1124          0.0000
CQUAD4      1087       1    3763    3762    1128    1126          0.0000
CQUAD4      1088       1    3762    3761    1130    1128          0.0000
CQUAD4      1089       1    3761    3760    1132    1130          0.0000
CQUAD4      1090       1    3760    3759    1134    1132          0.0000
CQUAD4      1091       1    3759    3758    1136    1134          0.0000
CQUAD4      1092       1    3758    3757    1138    1136          0.0000
CQUAD4      1093       1    3757    3756    1140    1138          0.0000
CQUAD4      1094       1    3756    3755    1142    1140          0.0000
CQUAD4      1095       1    3755    3754    1144    1142          0.0000
CQUAD4      1096       1    3754    3753    1146    1144          0.0000
CQUAD4      1097       1    3753    3752    1148    1146          0.0000
CQUAD4      1098       1    3752    3751    1150    1148          0.0000
CQUAD4      1099       1    3751    3750    1152    1150          0.0000
CQUAD4      1100       1    3750    3749    1154    1152          0.0000
CQUAD4      1101       1    3749    3748    1156    1154          0.0000
CQUAD4      1102       1    3748    3747    1158    1156          0.0000
CQUAD4      1103       1    3747    3746    1160    1158          0.0000
CQUAD4      1104       1    3746    3745    1162    1160          0.0000
CQUAD4      1105       1    3745    3744    1164    1162          0.0000
CQUAD4      1106       1    3744    3743    1166    1164          0.0000
CQUAD4      1107       1    3743    3742    1168    1166          0.0000
CQUAD4      1108       1    3742    3741    1170    1168          0.0000
CQUAD4      1109       1    3741    3740    1172    1170          0.0000
CQUAD4      1110       1    3740    3739    1174    1172          0.0000
CQUAD4      1111       1    3739    3738    1176    1174          0.0000
CQUAD4      1112       1    3738    3737    1178    1176          0.0000
CQUAD4      1113       1    3737    3736    1180    1178          0.0000
CQUAD4      1114       1    3736    3735    1182    1180          0.0000
CQUAD4      1115       1    3735    3734    1184    1182          0.0000
CQUAD4      1116       1    3734    3733    1186    1184          0.0000
CQUAD4      1117       1    3733    3732    1188    1186          0.0000
CQUAD4      1118       1    3732    3731    1190    1188          0.0000
CQUAD4      1119       1    3731    3730    1192    1190          0.0000
CQUAD4      1120       1    3730    3729    1194    1192          0.0000
CQUAD4      1121       1    3729    3728    1196    1194          0.0000
CQUAD4      1122       1    3728    3727    1198    1196          0.0000
CQUAD4      1123       1    3727    3726    1200    1198          0.0000
CQUAD4      1124       1    3726    3725    1202    1200          0.0000
CQUAD4      1125       1    3725    3724    1204    1202          0.0000
CQUAD4      1126       1    3724    3723    1206    1204          0.0000
CQUAD4      1127       1    3723    3722    1208    1206          0.0000
CQUAD4      1128       1    3722    3721    1210    1208          0.0000
CQUAD4      1129       1    3721    3720    1212    1210          0.0000
CQUAD4      1130       1    3720    3719    1214    1212          0.0000
CQUAD4      1131       1    3719    3718    1216    1214          0.0000
CQUAD4      1132       1    3718    3717    1218    1216          0.0000
CQUAD4      1133       1    3717    3716    1220    1218          0.0000
CQUAD4      1134       1    3716    3715    1222    1220          0.0000
CQUAD4      1135       1    3715    3714    1224    1222          0.0000
CQUAD4      1136       1    3714    3713    1226    1224          0.0000
CQUAD4      1137       1    3713    3712    1228    1226          0.0000
CQUAD4      1138       1    3712    3711    1230    1228          0.0000
CQUAD4      1139       1    3711    3710    1232    1230          0.0000
CQUAD4      1140       1    3710    3709    1234    1232          0.0000
CQUAD4      1141       1    3709    3708    1236    1234          0.0000
CQUAD4      1142       1    3708    3707    1238    1236          0.0000
CQUAD4      1143       1    3707    3706    1240    1238          0.0000
CQUAD4      1144       1    3706    3705    1242    1240          0.0000
CQUAD4      1145       1    3705    3704    1244    1242          0.0000
CQUAD4      1146       1    3704    3703    1246    1244          0.0000
CQUAD4      1147       1    3703    3702    1248    1246          0.0000
CQUAD4      1148       1    3702    3701    1250    1248          0.0000
CQUAD4      1149       1    3701    3700    1252    1250          0.0000
CQUAD4      1150       1    3700    3699    1254    1252          0.0000
CQUAD4      1151       1    3699    3698    1256    1254          0.0000
CQUAD4      1152       1    3698    3697    1258    1256          0.0000
CQUAD4      1153       1    3697    3696    1260    1258          0.0000
CQUAD4      1154       1    3696    3695    1262    1260          0.0000
CQUAD4      1155       1    3695    3694    1264    1262          0.0000
CQUAD4      1156       1    3694    3693    1266    1264          0.0000
CQUAD4      1157       1    3693    3692    1268    1266          0.0000
CQUAD4      1158       1    3692    3691    1270    1268          0.0000
CQUAD4      1159       1    3691    3690    1272    1270          0.0000
CQUAD4      1160       1    3690    3689    1274    1272          0.0000
CQUAD4      1161       1    3689    3688    1276    1274          0.0000
CQUAD4      1162       1    3688    3687    1278    1276          0.0000
CQUAD4      1163       1    3687    3686    1280    1278          0.0000
CQUAD4      1164       1    3686    3685    1282    1280          0.0000
CQUAD4      1165       1    3685    3684    1284    1282          0.0000
CQUAD4      1166       1    3684    3683    1286    1284          0.0000
CQUAD4      1167       1    3683    3682    1288    1286          0.0000
CQUAD4      1168       1    3682    3681    1290    1288          0.0000
CQUAD4      1169       1    3681    3680    1292    1290          0.0000
CQUAD4      1170       1    3680    3679    1294    1292          0.0000
CQUAD4      1171       1    3679    3678    1296    1294          0.0000
CQUAD4      1172       1    3678    3677    1298    1296          0.0000
CQUAD4      1173       1    3677    3676    1300    1298          0.0000
CQUAD4      1174       1    3676    3675    1302    1300          0.0000
CQUAD4      1175       1    3675    3674    1304    1302          0.0000
CQUAD4      1176       1    3674    3673    1306    1304          0.0000
CQUAD4      1177       1    3673    3672    1308    1306          0.0000
CQUAD4      1178       1    3672    3671    1310    1308          0.0000
CQUAD4      1179       1    3671    3670    1312    1310          0.0000
CQUAD4      1180       1    3670    3669    1314    1312          0.0000
CQUAD4      1181       1    3669    3668    1316    1314          0.0000
CQUAD4      1182       1    3668    3667    1318    1316          0.0000
CQUAD4      1183       1    3667    3666    1320    1318          0.0000
CQUAD4      1184       1    3666    3665    1322    1320          0.0000
CQUAD4      1185       1    3665    3664    1324    1322          0.0000
CQUAD4      1186       1    3664    3663    1326    1324          0.0000
CQUAD4      1187       1    3663    3662    1328    1326          0.0000
CQUAD4      1188       1    3662    3661    1330    1328          0.0000
CQUAD4      1189       1    3661    3660    1332    1330          0.0000
CQUAD4      1190       1    3660    3659    1334    1332          0.0000
CQUAD4      1191       1    3659    3658    1336    1334          0.0000
CQUAD4      1192       1    3658    3657    1338    1336          0.0000
CQUAD4      1193       1    3657    3656    1340    1338          0.0000
CQUAD4      1194       1    3656    3655    1342    1340          0.0000
CQUAD4      1195       1    3655    3654    1344    1342          0.0000
CQUAD4      1196       1    3654    3653    1346    1344          0.0000
CQUAD4      1197       1    3653    4004    3649    1346          0.0000
CQUAD4      1198       1    1346    3649    3650    1347          0.0000
CQUAD4      1199       1    1347    3650    4003    3480          0.0000
CQUAD4      1200       1    1345    1347    3480    3481          0.0000
CQUAD4      1201       1    1343    1345    3481    3482          0.0000
CQUAD4      1202       1    1341    1343    3482    3483          0.0000
CQUAD4      1203       1    1339    1341    3483    3484          0.0000
CQUAD4      1204       1    1337    1339    3484    3485          0.0000
CQUAD4      1205       1    1335    1337    3485    3486          0.0000
CQUAD4      1206       1    1333    1335    3486    3487          0.0000
CQUAD4      1207       1    1331    1333    3487    3488          0.0000
CQUAD4      1208       1    1329    1331    3488    3489          0.0000
CQUAD4      1209       1    1327    1329    3489    3490          0.0000
CQUAD4      1210       1    1325    1327    3490    3491          0.0000
CQUAD4      1211       1    1323    1325    3491    3492          0.0000
CQUAD4      1212       1    1321    1323    3492    3493          0.0000
CQUAD4      1213       1    1319    1321    3493    3494          0.0000
CQUAD4      1214       1    1317    1319    3494    3495          0.0000
CQUAD4      1215       1    1315    1317    3495    3496          0.0000
CQUAD4      1216       1    1313    1315    3496    3497          0.0000
CQUAD4      1217       1    1311    1313    3497    3498          0.0000
CQUAD4      1218       1    1309    1311    3498    3499          0.0000
CQUAD4      1219       1    1307    1309    3499    3500          0.0000
CQUAD4      1220       1    1305    1307    3500    3501          0.0000
CQUAD4      1221       1    1303    1305    3501    3502          0.0000
CQUAD4      1222       1    1301    1303    3502    3503          0.0000
CQUAD4      1223       1    1299    1301    3503    3504          0.0000
CQUAD4      1224       1    1297    1299    3504    3505          0.0000
CQUAD4      1225       1    1295    1297    3505    3506          0.0000
CQUAD4      1226       1    1293    1295    3506    3507          0.0000
CQUAD4      1227       1    1291    1293    3507    3508          0.0000
CQUAD4      1228       1    1289    1291    3508    3509          0.0000
CQUAD4      1229       1    1287    1289    3509    3510          0.0000
CQUAD4      1230       1    1285    1287    3510    3511          0.0000
CQUAD4      1231       1    1283    1285    3511    3512          0.0000
CQUAD4      1232       1    1281    1283    3512    3513          0.0000
CQUAD4      1233       1    1279    1281    3513    3514          0.0000
CQUAD4      1234       1    1277    1279    3514    3515          0.0000
CQUAD4      1235       1    1275    1277    3515    3516          0.0000
CQUAD4      1236       1    1273    1275    3516    3517          0.0000
CQUAD4      1237       1    1271    1273    3517    3518          0.0000
CQUAD4      1238       1    1269    1271    3518    3519          0.0000
CQUAD4      1239       1    1267    1269    3519    3520          0.0000
CQUAD4      1240       1    1265    1267    3520    3521          0.0000
CQUAD4      1241       1    1263    1265    3521    3522          0.0000
CQUAD4      1242       1    1261    1263    3522    3523          0.0000
CQUAD4      1243       1    1259    1261    3523    3524          0.0000
CQUAD4      1244       1    1257    1259    3524    3525          0.0000
CQUAD4      1245       1    1255    1257    3525    3526          0.0000
CQUAD4      1246       1    1253    1255    3526    3527          0.0000
CQUAD4      1247       1    1251    1253    3527    3528          0.0000
CQUAD4      1248       1    1249    1251    3528    3529          0.0000
CQUAD4      1249       1    1247    1249    3529    3530          0.0000
CQUAD4      1250       1    1245    1247    3530    3531          0.0000
CQUAD4      1251       1    1243    1245    3531    3532          0.0000
CQUAD4      1252       1    1241    1243    3532    3533          0.0000
CQUAD4      1253       1    1239    1241    3533    3534          0.0000
CQUAD4      1254       1    1237    1239    3534    3535          0.0000
CQUAD4      1255       1    1235    1237    3535    3536          0.0000
CQUAD4      1256       1    1233    1235    3536    3537          0.0000
CQUAD4      1257       1    1231    1233    3537    3538          0.0000
CQUAD4      1258       1    1229    1231    3538    3539          0.0000
CQUAD4      1259       1    1227    1229    3539    3540          0.0000
CQUAD4      1260       1    1225    1227    3540    3541          0.0000
CQUAD4      1261       1    1223    1225    3541    3542          0.0000
CQUAD4      1262       1    1221    1223    3542    3543          0.0000
CQUAD4      1263       1    1219    1221    3543    3544          0.0000
CQUAD4      1264       1    1217    1219    3544    3545          0.0000
CQUAD4      1265       1    1215    1217    3545    3546          0.0000
CQUAD4      1266       1    1213    1215    3546    3547          0.0000
CQUAD4      1267       1    1211    1213    3547    3548          0.0000
CQUAD4      1268       1    1209    1211    3548    3549          0.0000
CQUAD4      1269       1    1207    1209    3549    3550          0.0000
CQUAD4      1270       1    1205    1207    3550    3551          0.0000
CQUAD4      1271       1    1203    1205    3551    3552          0.0000
CQUAD4      1272       1    1201    1203    3552    3553          0.0000
CQUAD4      1273       1    1199    1201    3553    3554          0.0000
CQUAD4      1274       1    1197    1199    3554    3555          0.0000
CQUAD4      1275       1    1195    1197    3555    3556          0.0000
CQUAD4      1276       1    1193    1195    3556    3557          0.0000
CQUAD4      1277       1    1191    1193    3557    3558          0.0000
CQUAD4      1278       1    1189    1191    3558    3559          0.0000
CQUAD4      1279       1    1187    1189    3559    3560          0.0000
CQUAD4      1280       1    1185    1187    3560    3561          0.0000
CQUAD4      1281       1    1183    1185    3561    3562          0.0000
CQUAD4      1282       1    1181    1183    3562    3563          0.0000
CQUAD4      1283       1    1179    1181    3563    3564          0.0000
CQUAD4      1284       1    1177    1179    3564    3565          0.0000
CQUAD4      1285       1    1175    1177    3565    3566          0.0000
CQUAD4      1286       1    1173    1175    3566    3567          0.0000
CQUAD4      1287       1    1171    1173    3567    3568          0.0000
CQUAD4      1288       1    1169    1171    3568    3569          0.0000
CQUAD4      1289       1    1167    1169    3569    3570          0.0000
CQUAD4      1290       1    1165    1167    3570    3571          0.0000
CQUAD4      1291       1    1163    1165    3571    3572          0.0000
CQUAD4      1292       1    1161    1163    3572    3573          0.0000
CQUAD4      1293       1    1159    1161    3573    3574          0.0000
CQUAD4      1294       1    1157    1159    3574    3575          0.0000
CQUAD4      1295       1    1155    1157    3575    3576          0.0000
CQUAD4      1296       1    1153    1155    3576    3577          0.0000
CQUAD4      1297       1    1151    1153    3577    3578          0.0000
CQUAD4      1298       1    1149    1151    3578    3579          0.0000
CQUAD4      1299       1    1147    1149    3579    3580          0.0000
CQUAD4      1300       1    1145    1147    3580    3581          0.0000
CQUAD4      1301       1    1143    1145    3581    3582          0.0000
CQUAD4      1302       1    1141    1143    3582    3583          0.0000
CQUAD4      1303       1    1139    1141    3583    3584          0.0000
CQUAD4      1304       1    1137    1139    3584    3585          0.0000
CQUAD4      1305       1    1135    1137    3585    3586          0.0000
CQUAD4      1306       1    1133    1135    3586    3587          0.0000
CQUAD4      1307       1    1131    1133    3587    3588          0.0000
CQUAD4      1308       1    1129    1131    3588    3589          0.0000
CQUAD4      1309       1    1127    1129    3589    3590          0.0000
CQUAD4      1310       1    1125    1127    3590    3591          0.0000
CQUAD4      1311       1    1123    1125    3591    3592          0.0000
CQUAD4      1312       1    1121    1123    3592    3593          0.0000
CQUAD4      1313       1    1119    1121    3593    3594          0.0000
CQUAD4      1314       1    1117    1119    3594    3595          0.0000
CQUAD4      1315       1    1115    1117    3595    3596          0.0000
CQUAD4      1316       1    1113    1115    3596    3597          0.0000
CQUAD4      1317       1    1111    1113    3597    3598          0.0000
CQUAD4      1318       1    1109    1111    3598    3599          0.0000
CQUAD4      1319       1    1107    1109    3599    3600          0.0000
CQUAD4      1320       1    1105    1107    3600    3601          0.0000
CQUAD4      1321       1    1103    1105    3601    3602          0.0000
CQUAD4      1322       1    1101    1103    3602    3603          0.0000
CQUAD4      1323       1    1099    1101    3603    3604          0.0000
CQUAD4      1324       1    1097    1099    3604    3605          0.0000
CQUAD4      1325       1    1095    1097    3605    3606          0.0000
CQUAD4      1326       1    1093    1095    3606    3607          0.0000
CQUAD4      1327       1    1091    1093    3607    3608          0.0000
CQUAD4      1328       1    1089    1091    3608    3609          0.0000
CQUAD4      1329       1    1087    1089    3609    3610          0.0000
CQUAD4      1330       1    1085    1087    3610    3611          0.0000
CQUAD4      1331       1    1083    1085    3611    3612          0.0000
CQUAD4      1332       1    1081    1083    3612    3613          0.0000
CQUAD4      1333       1    1079    1081    3613    3614          0.0000
CQUAD4      1334       1    1077    1079    3614    3615          0.0000
CQUAD4      1335       1    1075    1077    3615    3616          0.0000
CQUAD4      1336       1    1073    1075    3616    3617          0.0000
CQUAD4      1337       1    1071    1073    3617    3618          0.0000
CQUAD4      1338       1    1069    1071    3618    3619          0.0000
CQUAD4      1339       1    1067    1069    3619    3620          0.0000
CQUAD4      1340       1    1065    1067    3620    3621          0.0000
CQUAD4      1341       1    1063    1065    3621    3622          0.0000
CQUAD4      1342       1    1061    1063    3622    3623          0.0000
CQUAD4      1343       1    1059    1061    3623    3624          0.0000
CQUAD4      1344       1    1057    1059    3624    3625          0.0000
CQUAD4      1345       1    1055    1057    3625    3626          0.0000
CQUAD4      1346       1    1053    1055    3626    3627          0.0000
CQUAD4      1347       1    1051    1053    3627    3628          0.0000
CQUAD4      1348       1    1049    1051    3628    3629          0.0000
CQUAD4      1349       1    1047    1049    3629    3630          0.0000
CQUAD4      1350       1    1045    1047    3630    3631          0.0000
CQUAD4      1351       1    1043    1045    3631    3632          0.0000
CQUAD4      1352       1    1041    1043    3632    3633          0.0000
CQUAD4      1353       1    1039    1041    3633    3634          0.0000
CQUAD4      1354       1    1037    1039    3634    3635          0.0000
CQUAD4      1355       1    1035    1037    3635    3636          0.0000
CQUAD4      1356       1    1033    1035    3636    3637          0.0000
CQUAD4      1357       1    1031    1033    3637    3638          0.0000
CQUAD4      1358       1    1029    1031    3638    3639          0.0000
CQUAD4      1359       1    1027    1029    3639    3640          0.0000
CQUAD4      1360       1    1025    1027    3640    3641          0.0000
CQUAD4      1361       1    1023    1025    3641    3642          0.0000
CQUAD4      1362       1    1021    1023    3642    3643          0.0000
CQUAD4      1363       1    3651    1021    3643    4002          0.0000
CQUAD4      1364       1    3652    1020    1021    3651          0.0000
CQUAD4      2685       1    2496    2502    2503    2497          0.0000
CQUAD4      2686       1    2497    2503    2504    2498          0.0000
CQUAD4      2687       1    2498    2504    2505    2499          0.0000
CQUAD4      2688       1    2499    2505    2506    2500          0.0000
CQUAD4      2689       1    2500    2506    2507    2501          0.0000
CQUAD4      2690       1    2502    2508    2509    2503          0.0000
CQUAD4      2691       1    2503    2509    2510    2504          0.0000
CQUAD4      2692       1    2504    2510    2511    2505          0.0000
CQUAD4      2693       1    2505    2511    2512    2506          0.0000
CQUAD4      2694       1    2506    2512    2513    2507          0.0000
CQUAD4      2695       1    2508    2514    2515    2509          0.0000
CQUAD4      2696       1    2509    2515    2516    2510          0.0000
CQUAD4      2697       1    2510    2516    2517    2511          0.0000
CQUAD4      2698       1    2511    2517    2518    2512          0.0000
CQUAD4      2699       1    2512    2518    2519    2513          0.0000
CQUAD4      2700       1    2514    2520    2521    2515          0.0000
CQUAD4      2701       1    2515    2521    2522    2516          0.0000
CQUAD4      2702       1    2516    2522    2523    2517          0.0000
CQUAD4      2703       1    2517    2523    2524    2518          0.0000
CQUAD4      2704       1    2518    2524    2525    2519          0.0000
CQUAD4      2705       1    2520    2526    2527    2521          0.0000
CQUAD4      2706       1    2521    2527    2528    2522          0.0000
CQUAD4      2707       1    2522    2528    2529    2523          0.0000
CQUAD4      2708       1    2523    2529    2530    2524          0.0000
CQUAD4      2709       1    2524    2530    2531    2525          0.0000
CQUAD4      2710       1    2526    2532    2533    2527          0.0000
CQUAD4      2711       1    2527    2533    2534    2528          0.0000
CQUAD4      2712       1    2528    2534    2535    2529          0.0000
CQUAD4      2713       1    2529    2535    2536    2530          0.0000
CQUAD4      2714       1    2530    2536    2537    2531          0.0000
CQUAD4      2715       1    2532    2538    2539    2533          0.0000
CQUAD4      2716       1    2533    2539    2540    2534          0.0000
CQUAD4      2717       1    2534    2540    2541    2535          0.0000
CQUAD4      2718       1    2535    2541    2542    2536          0.0000
CQUAD4      2719       1    2536    2542    2543    2537          0.0000
CQUAD4      2720       1    2538    2544    2545    2539          0.0000
CQUAD4      2721       1    2539    2545    2546    2540          0.0000
CQUAD4      2722       1    2540    2546    2547    2541          0.0000
CQUAD4      2723       1    2541    2547    2548    2542          0.0000
CQUAD4      2724       1    2542    2548    2549    2543          0.0000
CQUAD4      2725       1    2544    2550    2551    2545          0.0000
CQUAD4      2726       1    2545    2551    2552    2546          0.0000
CQUAD4      2727       1    2546    2552    2553    2547          0.0000
CQUAD4      2728       1    2547    2553    2554    2548          0.0000
CQUAD4      2729       1    2548    2554    2555    2549          0.0000
CQUAD4      2730       1    2550    2556    2557    2551          0.0000
CQUAD4      2731       1    2551    2557    2558    2552          0.0000
CQUAD4      2732       1    2552    2558    2559    2553          0.0000
CQUAD4      2733       1    2553    2559    2560    2554          0.0000
CQUAD4      2734       1    2554    2560    2561    2555          0.0000
CQUAD4      2735       1    2556    2562    2563    2557          0.0000
CQUAD4      2736       1    2557    2563    2564    2558          0.0000
CQUAD4      2737       1    2558    2564    2565    2559          0.0000
CQUAD4      2738       1    2559    2565    2566    2560          0.0000
CQUAD4      2739       1    2560    2566    2567    2561          0.0000
CQUAD4      2740       1    2562    2568    2569    2563          0.0000
CQUAD4      2741       1    2563    2569    2570    2564          0.0000
CQUAD4      2742       1    2564    2570    2571    2565          0.0000
CQUAD4      2743       1    2565    2571    2572    2566          0.0000
CQUAD4      2744       1    2566    2572    2573    2567          0.0000
CQUAD4      2745       1    2568    2574    2575    2569          0.0000
CQUAD4      2746       1    2569    2575    2576    2570          0.0000
CQUAD4      2747       1    2570    2576    2577    2571          0.0000
CQUAD4      2748       1    2571    2577    2578    2572          0.0000
CQUAD4      2749       1    2572    2578    2579    2573          0.0000
CQUAD4      2750       1    2574    2580    2581    2575          0.0000
CQUAD4      2751       1    2575    2581    2582    2576          0.0000
CQUAD4      2752       1    2576    2582    2583    2577          0.0000
CQUAD4      2753       1    2577    2583    2584    2578          0.0000
CQUAD4      2754       1    2578    2584    2585    2579          0.0000
CQUAD4      2755       1    2580    2586    2587    2581          0.0000
CQUAD4      2756       1    2581    2587    2588    2582          0.0000
CQUAD4      2757       1    2582    2588    2589    2583          0.0000
CQUAD4      2758       1    2583    2589    2590    2584          0.0000
CQUAD4      2759       1    2584    2590    2591    2585          0.0000
CQUAD4      2760       1    2586    2592    2593    2587          0.0000
CQUAD4      2761       1    2587    2593    2594    2588          0.0000
CQUAD4      2762       1    2588    2594    2595    2589          0.0000
CQUAD4      2763       1    2589    2595    2596    2590          0.0000
CQUAD4      2764       1    2590    2596    2597    2591          0.0000
CQUAD4      2765       1    2592    2598    2599    2593          0.0000
CQUAD4      2766       1    2593    2599    2600    2594          0.0000
CQUAD4      2767       1    2594    2600    2601    2595          0.0000
CQUAD4      2768       1    2595    2601    2602    2596          0.0000
CQUAD4      2769       1    2596    2602    2603    2597          0.0000
CQUAD4      2770       1    2598    2604    2605    2599          0.0000
CQUAD4      2771       1    2599    2605    2606    2600          0.0000
CQUAD4      2772       1    2600    2606    2607    2601          0.0000
CQUAD4      2773       1    2601    2607    2608    2602          0.0000
CQUAD4      2774       1    2602    2608    2609    2603          0.0000
CQUAD4      2775       1    2604    2610    2611    2605          0.0000
CQUAD4      2776       1    2605    2611    2612    2606          0.0000
CQUAD4      2777       1    2606    2612    2613    2607          0.0000
CQUAD4      2778       1    2607    2613    2614    2608          0.0000
CQUAD4      2779       1    2608    2614    2615    2609          0.0000
CQUAD4      2780       1    2610    2616    2617    2611          0.0000
CQUAD4      2781       1    2611    2617    2618    2612          0.0000
CQUAD4      2782       1    2612    2618    2619    2613          0.0000
CQUAD4      2783       1    2613    2619    2620    2614          0.0000
CQUAD4      2784       1    2614    2620    2621    2615          0.0000
CQUAD4      2785       1    2616    2622    2623    2617          0.0000
CQUAD4      2786       1    2617    2623    2624    2618          0.0000
CQUAD4      2787       1    2618    2624    2625    2619          0.0000
CQUAD4      2788       1    2619    2625    2626    2620          0.0000
CQUAD4      2789       1    2620    2626    2627    2621          0.0000
CQUAD4      2790       1    2622    2628    2629    2623          0.0000
CQUAD4      2791       1    2623    2629    2630    2624          0.0000
CQUAD4      2792       1    2624    2630    2631    2625          0.0000
CQUAD4      2793       1    2625    2631    2632    2626          0.0000
CQUAD4      2794       1    2626    2632    2633    2627          0.0000
CQUAD4      2795       1    2628    2634    2635    2629          0.0000
CQUAD4      2796       1    2629    2635    2636    2630          0.0000
CQUAD4      2797       1    2630    2636    2637    2631          0.0000
CQUAD4      2798       1    2631    2637    2638    2632          0.0000
CQUAD4      2799       1    2632    2638    2639    2633          0.0000
CQUAD4      2800       1    2634    2640    2641    2635          0.0000
CQUAD4      2801       1    2635    2641    2642    2636          0.0000
CQUAD4      2802       1    2636    2642    2643    2637          0.0000
CQUAD4      2803       1    2637    2643    2644    2638          0.0000
CQUAD4      2804       1    2638    2644    2645    2639          0.0000
CQUAD4      2805       1    2640    2646    2647    2641          0.0000
CQUAD4      2806       1    2641    2647    2648    2642          0.0000
CQUAD4      2807       1    2642    2648    2649    2643          0.0000
CQUAD4      2808       1    2643    2649    2650    2644          0.0000
CQUAD4      2809       1    2644    2650    2651    2645          0.0000
CQUAD4      2810       1    2646    2652    2653    2647          0.0000
CQUAD4      2811       1    2647    2653    2654    2648          0.0000
CQUAD4      2812       1    2648    2654    2655    2649          0.0000
CQUAD4      2813       1    2649    2655    2656    2650          0.0000
CQUAD4      2814       1    2650    2656    2657    2651          0.0000
CQUAD4      2815       1    2652    2658    2659    2653          0.0000
CQUAD4      2816       1    2653    2659    2660    2654          0.0000
CQUAD4      2817       1    2654    2660    2661    2655          0.0000
CQUAD4      2818       1    2655    2661    2662    2656          0.0000
CQUAD4      2819       1    2656    2662    2663    2657          0.0000
CQUAD4      2820       1    2658    2664    2665    2659          0.0000
CQUAD4      2821       1    2659    2665    2666    2660          0.0000
CQUAD4      2822       1    2660    2666    2667    2661          0.0000
CQUAD4      2823       1    2661    2667    2668    2662          0.0000
CQUAD4      2824       1    2662    2668    2669    2663          0.0000
CQUAD4      2825       1    2664    2670    2671    2665          0.0000
CQUAD4      2826       1    2665    2671    2672    2666          0.0000
CQUAD4      2827       1    2666    2672    2673    2667          0.0000
CQUAD4      2828       1    2667    2673    2674    2668          0.0000
CQUAD4      2829       1    2668    2674    2675    2669          0.0000
CQUAD4      2830       1    2670    2676    2677    2671          0.0000
CQUAD4      2831       1    2671    2677    2678    2672          0.0000
CQUAD4      2832       1    2672    2678    2679    2673          0.0000
CQUAD4      2833       1    2673    2679    2680    2674          0.0000
CQUAD4      2834       1    2674    2680    2681    2675          0.0000
CQUAD4      2835       1    2676    2682    2683    2677          0.0000
CQUAD4      2836       1    2677    2683    2684    2678          0.0000
CQUAD4      2837       1    2678    2684    2685    2679          0.0000
CQUAD4      2838       1    2679    2685    2686    2680          0.0000
CQUAD4      2839       1    2680    2686    2687    2681          0.0000
CQUAD4      2840       1    2682    2688    2689    2683          0.0000
CQUAD4      2841       1    2683    2689    2690    2684          0.0000
CQUAD4      2842       1    2684    2690    2691    2685          0.0000
CQUAD4      2843       1    2685    2691    2692    2686          0.0000
CQUAD4      2844       1    2686    2692    2693    2687          0.0000
CQUAD4      2845       1    2688    2694    2695    2689          0.0000
CQUAD4      2846       1    2689    2695    2696    2690          0.0000
CQUAD4      2847       1    2690    2696    2697    2691          0.0000
CQUAD4      2848       1    2691    2697    2698    2692          0.0000
CQUAD4      2849       1    2692    2698    2699    2693          0.0000
CQUAD4      2850       1    2694    2700    2701    2695          0.0000
CQUAD4      2851       1    2695    2701    2702    2696          0.0000
CQUAD4      2852       1    2696    2702    2703    2697          0.0000
CQUAD4      2853       1    2697    2703    2704    2698          0.0000
CQUAD4      2854       1    2698    2704    2705    2699          0.0000
CQUAD4      2855       1    2700    2706    2707    2701          0.0000
CQUAD4      2856       1    2701    2707    2708    2702          0.0000
CQUAD4      2857       1    2702    2708    2709    2703          0.0000
CQUAD4      2858       1    2703    2709    2710    2704          0.0000
CQUAD4      2859       1    2704    2710    2711    2705          0.0000
CQUAD4      2860       1    2706    2712    2713    2707          0.0000
CQUAD4      2861       1    2707    2713    2714    2708          0.0000
CQUAD4      2862       1    2708    2714    2715    2709          0.0000
CQUAD4      2863       1    2709    2715    2716    2710          0.0000
CQUAD4      2864       1    2710    2716    2717    2711          0.0000
CQUAD4      2865       1    2712    2718    2719    2713          0.0000
CQUAD4      2866       1    2713    2719    2720    2714          0.0000
CQUAD4      2867       1    2714    2720    2721    2715          0.0000
CQUAD4      2868       1    2715    2721    2722    2716          0.0000
CQUAD4      2869       1    2716    2722    2723    2717          0.0000
CQUAD4      2870       1    2718    2724    2725    2719          0.0000
CQUAD4      2871       1    2719    2725    2726    2720          0.0000
CQUAD4      2872       1    2720    2726    2727    2721          0.0000
CQUAD4      2873       1    2721    2727    2728    2722          0.0000
CQUAD4      2874       1    2722    2728    2729    2723          0.0000
CQUAD4      2875       1    2724    2730    2731    2725          0.0000
CQUAD4      2876       1    2725    2731    2732    2726          0.0000
CQUAD4      2877       1    2726    2732    2733    2727          0.0000
CQUAD4      2878       1    2727    2733    2734    2728          0.0000
CQUAD4      2879       1    2728    2734    2735    2729          0.0000
CQUAD4      2880       1    2730    2736    2737    2731          0.0000
CQUAD4      2881       1    2731    2737    2738    2732          0.0000
CQUAD4      2882       1    2732    2738    2739    2733          0.0000
CQUAD4      2883       1    2733    2739    2740    2734          0.0000
CQUAD4      2884       1    2734    2740    2741    2735          0.0000
CQUAD4      2885       1    2736    2742    2743    2737          0.0000
CQUAD4      2886       1    2737    2743    2744    2738          0.0000
CQUAD4      2887       1    2738    2744    2745    2739          0.0000
CQUAD4      2888       1    2739    2745    2746    2740          0.0000
CQUAD4      2889       1    2740    2746    2747    2741          0.0000
CQUAD4      2890       1    2742    2748    2749    2743          0.0000
CQUAD4      2891       1    2743    2749    2750    2744          0.0000
CQUAD4      2892       1    2744    2750    2751    2745          0.0000
CQUAD4      2893       1    2745    2751    2752    2746          0.0000
CQUAD4      2894       1    2746    2752    2753    2747          0.0000
CQUAD4      2895       1    2748    2754    2755    2749          0.0000
CQUAD4      2896       1    2749    2755    2756    2750          0.0000
CQUAD4      2897       1    2750    2756    2757    2751          0.0000
CQUAD4      2898       1    2751    2757    2758    2752          0.0000
CQUAD4      2899       1    2752    2758    2759    2753          0.0000
CQUAD4      2900       1    2754    2760    2761    2755          0.0000
CQUAD4      2901       1    2755    2761    2762    2756          0.0000
CQUAD4      2902       1    2756    2762    2763    2757          0.0000
CQUAD4      2903       1    2757    2763    2764    2758          0.0000
CQUAD4      2904       1    2758    2764    2765    2759          0.0000
CQUAD4      2905       1    2760    2766    2767    2761          0.0000
CQUAD4      2906       1    2761    2767    2768    2762          0.0000
CQUAD4      2907       1    2762    2768    2769    2763          0.0000
CQUAD4      2908       1    2763    2769    2770    2764          0.0000
CQUAD4      2909       1    2764    2770    2771    2765          0.0000
CQUAD4      2910       1    2766    2772    2773    2767          0.0000
CQUAD4      2911       1    2767    2773    2774    2768          0.0000
CQUAD4      2912       1    2768    2774    2775    2769          0.0000
CQUAD4      2913       1    2769    2775    2776    2770          0.0000
CQUAD4      2914       1    2770    2776    2777    2771          0.0000
CQUAD4      2915       1    2772    2778    2779    2773          0.0000
CQUAD4      2916       1    2773    2779    2780    2774          0.0000
CQUAD4      2917       1    2774    2780    2781    2775          0.0000
CQUAD4      2918       1    2775    2781    2782    2776          0.0000
CQUAD4      2919       1    2776    2782    2783    2777          0.0000
CQUAD4      2920       1    2778    2784    2785    2779          0.0000
CQUAD4      2921       1    2779    2785    2786    2780          0.0000
CQUAD4      2922       1    2780    2786    2787    2781          0.0000
CQUAD4      2923       1    2781    2787    2788    2782          0.0000
CQUAD4      2924       1    2782    2788    2789    2783          0.0000
CQUAD4      2925       1    2784    2790    2791    2785          0.0000
CQUAD4      2926       1    2785    2791    2792    2786          0.0000
CQUAD4      2927       1    2786    2792    2793    2787          0.0000
CQUAD4      2928       1    2787    2793    2794    2788          0.0000
CQUAD4      2929       1    2788    2794    2795    2789          0.0000
CQUAD4      2930       1    2790    2796    2797    2791          0.0000
CQUAD4      2931       1    2791    2797    2798    2792          0.0000
CQUAD4      2932       1    2792    2798    2799    2793          0.0000
CQUAD4      2933       1    2793    2799    2800    2794          0.0000
CQUAD4      2934       1    2794    2800    2801    2795          0.0000
CQUAD4      2935       1    2796    2802    2803    2797          0.0000
CQUAD4      2936       1    2797    2803    2804    2798          0.0000
CQUAD4      2937       1    2798    2804    2805    2799          0.0000
CQUAD4      2938       1    2799    2805    2806    2800          0.0000
CQUAD4      2939       1    2800    2806    2807    2801          0.0000
CQUAD4      2940       1    2802    2808    2809    2803          0.0000
CQUAD4      2941       1    2803    2809    2810    2804          0.0000
CQUAD4      2942       1    2804    2810    2811    2805          0.0000
CQUAD4      2943       1    2805    2811    2812    2806          0.0000
CQUAD4      2944       1    2806    2812    2813    2807          0.0000
CQUAD4      2945       1    2808    2814    2815    2809          0.0000
CQUAD4      2946       1    2809    2815    2816    2810          0.0000
CQUAD4      2947       1    2810    2816    2817    2811          0.0000
CQUAD4      2948       1    2811    2817    2818    2812          0.0000
CQUAD4      2949       1    2812    2818    2819    2813          0.0000
CQUAD4      2950       1    2814    2820    2821    2815          0.0000
CQUAD4      2951       1    2815    2821    2822    2816          0.0000
CQUAD4      2952       1    2816    2822    2823    2817          0.0000
CQUAD4      2953       1    2817    2823    2824    2818          0.0000
CQUAD4      2954       1    2818    2824    2825    2819          0.0000
CQUAD4      2955       1    2820    2826    2827    2821          0.0000
CQUAD4      2956       1    2821    2827    2828    2822          0.0000
CQUAD4      2957       1    2822    2828    2829    2823          0.0000
CQUAD4      2958       1    2823    2829    2830    2824          0.0000
CQUAD4      2959       1    2824    2830    2831    2825          0.0000
CQUAD4      2960       1    2826    2832    2833    2827          0.0000
CQUAD4      2961       1    2827    2833    2834    2828          0.0000
CQUAD4      2962       1    2828    2834    2835    2829          0.0000
CQUAD4      2963       1    2829    2835    2836    2830          0.0000
CQUAD4      2964       1    2830    2836    2837    2831          0.0000
CQUAD4      2965       1    2832    2838    2839    2833          0.0000
CQUAD4      2966       1    2833    2839    2840    2834          0.0000
CQUAD4      2967       1    2834    2840    2841    2835          0.0000
CQUAD4      2968       1    2835    2841    2842    2836          0.0000
CQUAD4      2969       1    2836    2842    2843    2837          0.0000
CQUAD4      2970       1    2838    2844    2845    2839          0.0000
CQUAD4      2971       1    2839    2845    2846    2840          0.0000
CQUAD4      2972       1    2840    2846    2847    2841          0.0000
CQUAD4      2973       1    2841    2847    2848    2842          0.0000
CQUAD4      2974       1    2842    2848    2849    2843          0.0000
CQUAD4      2975       1    2844    2850    2851    2845          0.0000
CQUAD4      2976       1    2845    2851    2852    2846          0.0000
CQUAD4      2977       1    2846    2852    2853    2847          0.0000
CQUAD4      2978       1    2847    2853    2854    2848          0.0000
CQUAD4      2979       1    2848    2854    2855    2849          0.0000
CQUAD4      2980       1    2850    2856    2857    2851          0.0000
CQUAD4      2981       1    2851    2857    2858    2852          0.0000
CQUAD4      2982       1    2852    2858    2859    2853          0.0000
CQUAD4      2983       1    2853    2859    2860    2854          0.0000
CQUAD4      2984       1    2854    2860    2861    2855          0.0000
CQUAD4      2985       1    2856    2862    2863    2857          0.0000
CQUAD4      2986       1    2857    2863    2864    2858          0.0000
CQUAD4      2987       1    2858    2864    2865    2859          0.0000
CQUAD4      2988       1    2859    2865    2866    2860          0.0000
CQUAD4      2989       1    2860    2866    2867    2861          0.0000
CQUAD4      2990       1    2862    2868    2869    2863          0.0000
CQUAD4      2991       1    2863    2869    2870    2864          0.0000
CQUAD4      2992       1    2864    2870    2871    2865          0.0000
CQUAD4      2993       1    2865    2871    2872    2866          0.0000
CQUAD4      2994       1    2866    2872    2873    2867          0.0000
CQUAD4      2995       1    2868    2874    2875    2869          0.0000
CQUAD4      2996       1    2869    2875    2876    2870          0.0000
CQUAD4      2997       1    2870    2876    2877    2871          0.0000
CQUAD4      2998       1    2871    2877    2878    2872          0.0000
CQUAD4      2999       1    2872    2878    2879    2873          0.0000
CQUAD4      3000       1    2874    2880    2881    2875          0.0000
CQUAD4      3001       1    2875    2881    2882    2876          0.0000
CQUAD4      3002       1    2876    2882    2883    2877          0.0000
CQUAD4      3003       1    2877    2883    2884    2878          0.0000
CQUAD4      3004       1    2878    2884    2885    2879          0.0000
CQUAD4      3005       1    2880    2886    2887    2881          0.0000
CQUAD4      3006       1    2881    2887    2888    2882          0.0000
CQUAD4      3007       1    2882    2888    2889    2883          0.0000
CQUAD4      3008       1    2883    2889    2890    2884          0.0000
CQUAD4      3009       1    2884    2890    2891    2885          0.0000
CQUAD4      3010       1    2886    2892    2893    2887          0.0000
CQUAD4      3011       1    2887    2893    2894    2888          0.0000
CQUAD4      3012       1    2888    2894    2895    2889          0.0000
CQUAD4      3013       1    2889    2895    2896    2890          0.0000
CQUAD4      3014       1    2890    2896    2897    2891          0.0000
CQUAD4      3015       1    2892    2898    2899    2893          0.0000
CQUAD4      3016       1    2893    2899    2900    2894          0.0000
CQUAD4      3017       1    2894    2900    2901    2895          0.0000
CQUAD4      3018       1    2895    2901    2902    2896          0.0000
CQUAD4      3019       1    2896    2902    2903    2897          0.0000
CQUAD4      3020       1    2898    2904    2905    2899          0.0000
CQUAD4      3021       1    2899    2905    2906    2900          0.0000
CQUAD4      3022       1    2900    2906    2907    2901          0.0000
CQUAD4      3023       1    2901    2907    2908    2902          0.0000
CQUAD4      3024       1    2902    2908    2909    2903          0.0000
CQUAD4      3025       1    2904    2910    2911    2905          0.0000
CQUAD4      3026       1    2905    2911    2912    2906          0.0000
CQUAD4      3027       1    2906    2912    2913    2907          0.0000
CQUAD4      3028       1    2907    2913    2914    2908          0.0000
CQUAD4      3029       1    2908    2914    2915    2909          0.0000
CQUAD4      3030       1    2910    2916    2917    2911          0.0000
CQUAD4      3031       1    2911    2917    2918    2912          0.0000
CQUAD4      3032       1    2912    2918    2919    2913          0.0000
CQUAD4      3033       1    2913    2919    2920    2914          0.0000
CQUAD4      3034       1    2914    2920    2921    2915          0.0000
CQUAD4      3035       1    2916    2922    2923    2917          0.0000
CQUAD4      3036       1    2917    2923    2924    2918          0.0000
CQUAD4      3037       1    2918    2924    2925    2919          0.0000
CQUAD4      3038       1    2919    2925    2926    2920          0.0000
CQUAD4      3039       1    2920    2926    2927    2921          0.0000
CQUAD4      3040       1    2922    2928    2929    2923          0.0000
CQUAD4      3041       1    2923    2929    2930    2924          0.0000
CQUAD4      3042       1    2924    2930    2931    2925          0.0000
CQUAD4      3043       1    2925    2931    2932    2926          0.0000
CQUAD4      3044       1    2926    2932    2933    2927          0.0000
CQUAD4      3045       1    2928    2934    2935    2929          0.0000
CQUAD4      3046       1    2929    2935    2936    2930          0.0000
CQUAD4      3047       1    2930    2936    2937    2931          0.0000
CQUAD4      3048       1    2931    2937    2938    2932          0.0000
CQUAD4      3049       1    2932    2938    2939    2933          0.0000
CQUAD4      3050       1    2934    2940    2941    2935          0.0000
CQUAD4      3051       1    2935    2941    2942    2936          0.0000
CQUAD4      3052       1    2936    2942    2943    2937          0.0000
CQUAD4      3053       1    2937    2943    2944    2938          0.0000
CQUAD4      3054       1    2938    2944    2945    2939          0.0000
CQUAD4      3055       1    2940    2946    2947    2941          0.0000
CQUAD4      3056       1    2941    2947    2948    2942          0.0000
CQUAD4      3057       1    2942    2948    2949    2943          0.0000
CQUAD4      3058       1    2943    2949    2950    2944          0.0000
CQUAD4      3059       1    2944    2950    2951    2945          0.0000
CQUAD4      3060       1    2946    2952    2953    2947          0.0000
CQUAD4      3061       1    2947    2953    2954    2948          0.0000
CQUAD4      3062       1    2948    2954    2955    2949          0.0000
CQUAD4      3063       1    2949    2955    2956    2950          0.0000
CQUAD4      3064       1    2950    2956    2957    2951          0.0000
CQUAD4      3065       1    2952    2958    2959    2953          0.0000
CQUAD4      3066       1    2953    2959    2960    2954          0.0000
CQUAD4      3067       1    2954    2960    2961    2955          0.0000
CQUAD4      3068       1    2955    2961    2962    2956          0.0000
CQUAD4      3069       1    2956    2962    2963    2957          0.0000
CQUAD4      3070       1    2958    2964    2965    2959          0.0000
CQUAD4      3071       1    2959    2965    2966    2960          0.0000
CQUAD4      3072       1    2960    2966    2967    2961          0.0000
CQUAD4      3073       1    2961    2967    2968    2962          0.0000
CQUAD4      3074       1    2962    2968    2969    2963          0.0000
CQUAD4      3075       1    2964    2970    2971    2965          0.0000
CQUAD4      3076       1    2965    2971    2972    2966          0.0000
CQUAD4      3077       1    2966    2972    2973    2967          0.0000
CQUAD4      3078       1    2967    2973    2974    2968          0.0000
CQUAD4      3079       1    2968    2974    2975    2969          0.0000
CQUAD4      3080       1    2970    2976    2977    2971          0.0000
CQUAD4      3081       1    2971    2977    2978    2972          0.0000
CQUAD4      3082       1    2972    2978    2979    2973          0.0000
CQUAD4      3083       1    2973    2979    2980    2974          0.0000
CQUAD4      3084       1    2974    2980    2981    2975          0.0000
CQUAD4      3085       1    2976    2982    2983    2977          0.0000
CQUAD4      3086       1    2977    2983    2984    2978          0.0000
CQUAD4      3087       1    2978    2984    2985    2979          0.0000
CQUAD4      3088       1    2979    2985    2986    2980          0.0000
CQUAD4      3089       1    2980    2986    2987    2981          0.0000
CQUAD4      3090       1    2982    2988    2989    2983          0.0000
CQUAD4      3091       1    2983    2989    2990    2984          0.0000
CQUAD4      3092       1    2984    2990    2991    2985          0.0000
CQUAD4      3093       1    2985    2991    2992    2986          0.0000
CQUAD4      3094       1    2986    2992    2993    2987          0.0000
CQUAD4      3095       1    2988    2994    2995    2989          0.0000
CQUAD4      3096       1    2989    2995    2996    2990          0.0000
CQUAD4      3097       1    2990    2996    2997    2991          0.0000
CQUAD4      3098       1    2991    2997    2998    2992          0.0000
CQUAD4      3099       1    2992    2998    2999    2993          0.0000
CQUAD4      3100       1    2994    3000    3001    2995          0.0000
CQUAD4      3101       1    2995    3001    3002    2996          0.0000
CQUAD4      3102       1    2996    3002    3003    2997          0.0000
CQUAD4      3103       1    2997    3003    3004    2998          0.0000
CQUAD4      3104       1    2998    3004    3005    2999          0.0000
CQUAD4      3105       1    3000    3006    3007    3001          0.0000
CQUAD4      3106       1    3001    3007    3008    3002          0.0000
CQUAD4      3107       1    3002    3008    3009    3003          0.0000
CQUAD4      3108       1    3003    3009    3010    3004          0.0000
CQUAD4      3109       1    3004    3010    3011    3005          0.0000
CQUAD4      3110       1    3006    3012    3013    3007          0.0000
CQUAD4      3111       1    3007    3013    3014    3008          0.0000
CQUAD4      3112       1    3008    3014    3015    3009          0.0000
CQUAD4      3113       1    3009    3015    3016    3010          0.0000
CQUAD4      3114       1    3010    3016    3017    3011          0.0000
CQUAD4      3115       1    3012    3018    3019    3013          0.0000
CQUAD4      3116       1    3013    3019    3020    3014          0.0000
CQUAD4      3117       1    3014    3020    3021    3015          0.0000
CQUAD4      3118       1    3015    3021    3022    3016          0.0000
CQUAD4      3119       1    3016    3022    3023    3017          0.0000
CQUAD4      3120       1    3018    3024    3025    3019          0.0000
CQUAD4      3121       1    3019    3025    3026    3020          0.0000
CQUAD4      3122       1    3020    3026    3027    3021          0.0000
CQUAD4      3123       1    3021    3027    3028    3022          0.0000
CQUAD4      3124       1    3022    3028    3029    3023          0.0000
CQUAD4      3125       1    3024    3030    3031    3025          0.0000
CQUAD4      3126       1    3025    3031    3032    3026          0.0000
CQUAD4      3127       1    3026    3032    3033    3027          0.0000
CQUAD4      3128       1    3027    3033    3034    3028          0.0000
CQUAD4      3129       1    3028    3034    3035    3029          0.0000
CQUAD4      3130       1    3030    3036    3037    3031          0.0000
CQUAD4      3131       1    3031    3037    3038    3032          0.0000
CQUAD4      3132       1    3032    3038    3039    3033          0.0000
CQUAD4      3133       1    3033    3039    3040    3034          0.0000
CQUAD4      3134       1    3034    3040    3041    3035          0.0000
CQUAD4      3135       1    3036    3042    3043    3037          0.0000
CQUAD4      3136       1    3037    3043    3044    3038          0.0000
CQUAD4      3137       1    3038    3044    3045    3039          0.0000
CQUAD4      3138       1    3039    3045    3046    3040          0.0000
CQUAD4      3139       1    3040    3046    3047    3041          0.0000
CQUAD4      3140       1    3042    3048    3049    3043          0.0000
CQUAD4      3141       1    3043    3049    3050    3044          0.0000
CQUAD4      3142       1    3044    3050    3051    3045          0.0000
CQUAD4      3143       1    3045    3051    3052    3046          0.0000
CQUAD4      3144       1    3046    3052    3053    3047          0.0000
CQUAD4      3145       1    3048    3054    3055    3049          0.0000
CQUAD4      3146       1    3049    3055    3056    3050          0.0000
CQUAD4      3147       1    3050    3056    3057    3051          0.0000
CQUAD4      3148       1    3051    3057    3058    3052          0.0000
CQUAD4      3149       1    3052    3058    3059    3053          0.0000
CQUAD4      3150       1    3054    3060    3061    3055          0.0000
CQUAD4      3151       1    3055    3061    3062    3056          0.0000
CQUAD4      3152       1    3056    3062    3063    3057          0.0000
CQUAD4      3153       1    3057    3063    3064    3058          0.0000
CQUAD4      3154       1    3058    3064    3065    3059          0.0000
CQUAD4      3155       1    3060    3066    3067    3061          0.0000
CQUAD4      3156       1    3061    3067    3068    3062          0.0000
CQUAD4      3157       1    3062    3068    3069    3063          0.0000
CQUAD4      3158       1    3063    3069    3070    3064          0.0000
CQUAD4      3159       1    3064    3070    3071    3065          0.0000
CQUAD4      3160       1    3066    3072    3073    3067          0.0000
CQUAD4      3161       1    3067    3073    3074    3068          0.0000
CQUAD4      3162       1    3068    3074    3075    3069          0.0000
CQUAD4      3163       1    3069    3075    3076    3070          0.0000
CQUAD4      3164       1    3070    3076    3077    3071          0.0000
CQUAD4      3165       1    3072    3078    3079    3073          0.0000
CQUAD4      3166       1    3073    3079    3080    3074          0.0000
CQUAD4      3167       1    3074    3080    3081    3075          0.0000
CQUAD4      3168       1    3075    3081    3082    3076          0.0000
CQUAD4      3169       1    3076    3082    3083    3077          0.0000
CQUAD4      3170       1    3078    3084    3085    3079          0.0000
CQUAD4      3171       1    3079    3085    3086    3080          0.0000
CQUAD4      3172       1    3080    3086    3087    3081          0.0000
CQUAD4      3173       1    3081    3087    3088    3082          0.0000
CQUAD4      3174       1    3082    3088    3089    3083          0.0000
CQUAD4      3175       1    3084    3090    3091    3085          0.0000
CQUAD4      3176       1    3085    3091    3092    3086          0.0000
CQUAD4      3177       1    3086    3092    3093    3087          0.0000
CQUAD4      3178       1    3087    3093    3094    3088          0.0000
CQUAD4      3179       1    3088    3094    3095    3089          0.0000
CQUAD4      3180       1    3090    3096    3097    3091          0.0000
CQUAD4      3181       1    3091    3097    3098    3092          0.0000
CQUAD4      3182       1    3092    3098    3099    3093          0.0000
CQUAD4      3183       1    3093    3099    3100    3094          0.0000
CQUAD4      3184       1    3094    3100    3101    3095          0.0000
CQUAD4      3185       1    3096    3102    3103    3097          0.0000
CQUAD4      3186       1    3097    3103    3104    3098          0.0000
CQUAD4      3187       1    3098    3104    3105    3099          0.0000
CQUAD4      3188       1    3099    3105    3106    3100          0.0000
CQUAD4      3189       1    3100    3106    3107    3101          0.0000
CQUAD4      3190       1    3102    3108    3109    3103          0.0000
CQUAD4      3191       1    3103    3109    3110    3104          0.0000
CQUAD4      3192       1    3104    3110    3111    3105          0.0000
CQUAD4      3193       1    3105    3111    3112    3106          0.0000
CQUAD4      3194       1    3106    3112    3113    3107          0.0000
CQUAD4      3195       1    3108    3114    3115    3109          0.0000
CQUAD4      3196       1    3109    3115    3116    3110          0.0000
CQUAD4      3197       1    3110    3116    3117    3111          0.0000
CQUAD4      3198       1    3111    3117    3118    3112          0.0000
CQUAD4      3199       1    3112    3118    3119    3113          0.0000
CQUAD4      3200       1    3114    3120    3121    3115          0.0000
CQUAD4      3201       1    3115    3121    3122    3116          0.0000
CQUAD4      3202       1    3116    3122    3123    3117          0.0000
CQUAD4      3203       1    3117    3123    3124    3118          0.0000
CQUAD4      3204       1    3118    3124    3125    3119          0.0000
CQUAD4      3205       1    3120    3126    3127    3121          0.0000
CQUAD4      3206       1    3121    3127    3128    3122          0.0000
CQUAD4      3207       1    3122    3128    3129    3123          0.0000
CQUAD4      3208       1    3123    3129    3130    3124          0.0000
CQUAD4      3209       1    3124    3130    3131    3125          0.0000
CQUAD4      3210       1    3126    3132    3133    3127          0.0000
CQUAD4      3211       1    3127    3133    3134    3128          0.0000
CQUAD4      3212       1    3128    3134    3135    3129          0.0000
CQUAD4      3213       1    3129    3135    3136    3130          0.0000
CQUAD4      3214       1    3130    3136    3137    3131          0.0000
CQUAD4      3215       1    3132    3138    3139    3133          0.0000
CQUAD4      3216       1    3133    3139    3140    3134          0.0000
CQUAD4      3217       1    3134    3140    3141    3135          0.0000
CQUAD4      3218       1    3135    3141    3142    3136          0.0000
CQUAD4      3219       1    3136    3142    3143    3137          0.0000
CQUAD4      3220       1    3138    3144    3145    3139          0.0000
CQUAD4      3221       1    3139    3145    3146    3140          0.0000
CQUAD4      3222       1    3140    3146    3147    3141          0.0000
CQUAD4      3223       1    3141    3147    3148    3142          0.0000
CQUAD4      3224       1    3142    3148    3149    3143          0.0000
CQUAD4      3225       1    3144    3150    3151    3145          0.0000
CQUAD4      3226       1    3145    3151    3152    3146          0.0000
CQUAD4      3227       1    3146    3152    3153    3147          0.0000
CQUAD4      3228       1    3147    3153    3154    3148          0.0000
CQUAD4      3229       1    3148    3154    3155    3149          0.0000
CQUAD4      3230       1    3150    3156    3157    3151          0.0000
CQUAD4      3231       1    3151    3157    3158    3152          0.0000
CQUAD4      3232       1    3152    3158    3159    3153          0.0000
CQUAD4      3233       1    3153    3159    3160    3154          0.0000
CQUAD4      3234       1    3154    3160    3161    3155          0.0000
CQUAD4      3235       1    3156    3162    3163    3157          0.0000
CQUAD4      3236       1    3157    3163    3164    3158          0.0000
CQUAD4      3237       1    3158    3164    3165    3159          0.0000
CQUAD4      3238       1    3159    3165    3166    3160          0.0000
CQUAD4      3239       1    3160    3166    3167    3161          0.0000
CQUAD4      3240       1    3162    3168    3169    3163          0.0000
CQUAD4      3241       1    3163    3169    3170    3164          0.0000
CQUAD4      3242       1    3164    3170    3171    3165          0.0000
CQUAD4      3243       1    3165    3171    3172    3166          0.0000
CQUAD4      3244       1    3166    3172    3173    3167          0.0000
CQUAD4      3245       1    3168    3174    3175    3169          0.0000
CQUAD4      3246       1    3169    3175    3176    3170          0.0000
CQUAD4      3247       1    3170    3176    3177    3171          0.0000
CQUAD4      3248       1    3171    3177    3178    3172          0.0000
CQUAD4      3249       1    3172    3178    3179    3173          0.0000
CQUAD4      3250       1    3174    3180    3181    3175          0.0000
CQUAD4      3251       1    3175    3181    3182    3176          0.0000
CQUAD4      3252       1    3176    3182    3183    3177          0.0000
CQUAD4      3253       1    3177    3183    3184    3178          0.0000
CQUAD4      3254       1    3178    3184    3185    3179          0.0000
CQUAD4      3255       1    3180    3186    3187    3181          0.0000
CQUAD4      3256       1    3181    3187    3188    3182          0.0000
CQUAD4      3257       1    3182    3188    3189    3183          0.0000
CQUAD4      3258       1    3183    3189    3190    3184          0.0000
CQUAD4      3259       1    3184    3190    3191    3185          0.0000
CQUAD4      3260       1    3186    3192    3193    3187          0.0000
CQUAD4      3261       1    3187    3193    3194    3188          0.0000
CQUAD4      3262       1    3188    3194    3195    3189          0.0000
CQUAD4      3263       1    3189    3195    3196    3190          0.0000
CQUAD4      3264       1    3190    3196    3197    3191          0.0000
CQUAD4      3265       1    3192    3198    3199    3193          0.0000
CQUAD4      3266       1    3193    3199    3200    3194          0.0000
CQUAD4      3267       1    3194    3200    3201    3195          0.0000
CQUAD4      3268       1    3195    3201    3202    3196          0.0000
CQUAD4      3269       1    3196    3202    3203    3197          0.0000
CQUAD4      3270       1    3198    3204    3205    3199          0.0000
CQUAD4      3271       1    3199    3205    3206    3200          0.0000
CQUAD4      3272       1    3200    3206    3207    3201          0.0000
CQUAD4      3273       1    3201    3207    3208    3202          0.0000
CQUAD4      3274       1    3202    3208    3209    3203          0.0000
CQUAD4      3275       1    3204    3210    3211    3205          0.0000
CQUAD4      3276       1    3205    3211    3212    3206          0.0000
CQUAD4      3277       1    3206    3212    3213    3207          0.0000
CQUAD4      3278       1    3207    3213    3214    3208          0.0000
CQUAD4      3279       1    3208    3214    3215    3209          0.0000
CQUAD4      3280       1    3210    3216    3217    3211          0.0000
CQUAD4      3281       1    3211    3217    3218    3212          0.0000
CQUAD4      3282       1    3212    3218    3219    3213          0.0000
CQUAD4      3283       1    3213    3219    3220    3214          0.0000
CQUAD4      3284       1    3214    3220    3221    3215          0.0000
CQUAD4      3285       1    3216    3222    3223    3217          0.0000
CQUAD4      3286       1    3217    3223    3224    3218          0.0000
CQUAD4      3287       1    3218    3224    3225    3219          0.0000
CQUAD4      3288       1    3219    3225    3226    3220          0.0000
CQUAD4      3289       1    3220    3226    3227    3221          0.0000
CQUAD4      3290       1    3222    3228    3229    3223          0.0000
CQUAD4      3291       1    3223    3229    3230    3224          0.0000
CQUAD4      3292       1    3224    3230    3231    3225          0.0000
CQUAD4      3293       1    3225    3231    3232    3226          0.0000
CQUAD4      3294       1    3226    3232    3233    3227          0.0000
CQUAD4      3295       1    3228    3234    3235    3229          0.0000
CQUAD4      3296       1    3229    3235    3236    3230          0.0000
CQUAD4      3297       1    3230    3236    3237    3231          0.0000
CQUAD4      3298       1    3231    3237    3238    3232          0.0000
CQUAD4      3299       1    3232    3238    3239    3233          0.0000
CQUAD4      3300       1    3234    3240    3241    3235          0.0000
CQUAD4      3301       1    3235    3241    3242    3236          0.0000
CQUAD4      3302       1    3236    3242    3243    3237          0.0000
CQUAD4      3303       1    3237    3243    3244    3238          0.0000
CQUAD4      3304       1    3238    3244    3245    3239          0.0000
CQUAD4      3305       1    3240    3246    3247    3241          0.0000
CQUAD4      3306       1    3241    3247    3248    3242          0.0000
CQUAD4      3307       1    3242    3248    3249    3243          0.0000
CQUAD4      3308       1    3243    3249    3250    3244          0.0000
CQUAD4      3309       1    3244    3250    3251    3245          0.0000
CQUAD4      3310       1    3246    3252    3253    3247          0.0000
CQUAD4      3311       1    3247    3253    3254    3248          0.0000
CQUAD4      3312       1    3248    3254    3255    3249          0.0000
CQUAD4      3313       1    3249    3255    3256    3250          0.0000
CQUAD4      3314       1    3250    3256    3257    3251          0.0000
CQUAD4      3315       1    3252    3258    3259    3253          0.0000
CQUAD4      3316       1    3253    3259    3260    3254          0.0000
CQUAD4      3317       1    3254    3260    3261    3255          0.0000
CQUAD4      3318       1    3255    3261    3262    3256          0.0000
CQUAD4      3319       1    3256    3262    3263    3257          0.0000
CQUAD4      3320       1    3258    3264    3265    3259          0.0000
CQUAD4      3321       1    3259    3265    3266    3260          0.0000
CQUAD4      3322       1    3260    3266    3267    3261          0.0000
CQUAD4      3323       1    3261    3267    3268    3262          0.0000
CQUAD4      3324       1    3262    3268    3269    3263          0.0000
CQUAD4      3325       1    3264    3270    3271    3265          0.0000
CQUAD4      3326       1    3265    3271    3272    3266          0.0000
CQUAD4      3327       1    3266    3272    3273    3267          0.0000
CQUAD4      3328       1    3267    3273    3274    3268          0.0000
CQUAD4      3329       1    3268    3274    3275    3269          0.0000
CQUAD4      3330       1    3270    3276    3277    3271          0.0000
CQUAD4      3331       1    3271    3277    3278    3272          0.0000
CQUAD4      3332       1    3272    3278    3279    3273          0.0000
CQUAD4      3333       1    3273    3279    3280    3274          0.0000
CQUAD4      3334       1    3274    3280    3281    3275          0.0000
CQUAD4      3335       1    3276    3282    3283    3277          0.0000
CQUAD4      3336       1    3277    3283    3284    3278          0.0000
CQUAD4      3337       1    3278    3284    3285    3279          0.0000
CQUAD4      3338       1    3279    3285    3286    3280          0.0000
CQUAD4      3339       1    3280    3286    3287    3281          0.0000
CQUAD4      3340       1    3282    3288    3289    3283          0.0000
CQUAD4      3341       1    3283    3289    3290    3284          0.0000
CQUAD4      3342       1    3284    3290    3291    3285          0.0000
CQUAD4      3343       1    3285    3291    3292    3286          0.0000
CQUAD4      3344       1    3286    3292    3293    3287          0.0000
CQUAD4      3345       1    3288    3294    3295    3289          0.0000
CQUAD4      3346       1    3289    3295    3296    3290          0.0000
CQUAD4      3347       1    3290    3296    3297    3291          0.0000
CQUAD4      3348       1    3291    3297    3298    3292          0.0000
CQUAD4      3349       1    3292    3298    3299    3293          0.0000
CQUAD4      3350       1    3294    3300    3301    3295          0.0000
CQUAD4      3351       1    3295    3301    3302    3296          0.0000
CQUAD4      3352       1    3296    3302    3303    3297          0.0000
CQUAD4      3353       1    3297    3303    3304    3298          0.0000
CQUAD4      3354       1    3298    3304    3305    3299          0.0000
CQUAD4      3355       1    3300    3306    3307    3301          0.0000
CQUAD4      3356       1    3301    3307    3308    3302          0.0000
CQUAD4      3357       1    3302    3308    3309    3303          0.0000
CQUAD4      3358       1    3303    3309    3310    3304          0.0000
CQUAD4      3359       1    3304    3310    3311    3305          0.0000
CQUAD4      3360       1    3306    3312    3313    3307          0.0000
CQUAD4      3361       1    3307    3313    3314    3308          0.0000
CQUAD4      3362       1    3308    3314    3315    3309          0.0000
CQUAD4      3363       1    3309    3315    3316    3310          0.0000
CQUAD4      3364       1    3310    3316    3317    3311          0.0000
CQUAD4      3365       1    3312    3318    3319    3313          0.0000
CQUAD4      3366       1    3313    3319    3320    3314          0.0000
CQUAD4      3367       1    3314    3320    3321    3315          0.0000
CQUAD4      3368       1    3315    3321    3322    3316          0.0000
CQUAD4      3369       1    3316    3322    3323    3317          0.0000
CQUAD4      3370       1    3318    3324    3325    3319          0.0000
CQUAD4      3371       1    3319    3325    3326    3320          0.0000
CQUAD4      3372       1    3320    3326    3327    3321          0.0000
CQUAD4      3373       1    3321    3327    3328    3322          0.0000
CQUAD4      3374       1    3322    3328    3329    3323          0.0000
CQUAD4      3375       1    3324    3330    3331    3325          0.0000
CQUAD4      3376       1    3325    3331    3332    3326          0.0000
CQUAD4      3377       1    3326    3332    3333    3327          0.0000
CQUAD4      3378       1    3327    3333    3334    3328          0.0000
CQUAD4      3379       1    3328    3334    3335    3329          0.0000
CQUAD4      3380       1    3330    3336    3337    3331          0.0000
CQUAD4      3381       1    3331    3337    3338    3332          0.0000
CQUAD4      3382       1    3332    3338    3339    3333          0.0000
CQUAD4      3383       1    3333    3339    3340    3334          0.0000
CQUAD4      3384       1    3334    3340    3341    3335          0.0000
CQUAD4      3385       1    3336    3342    3343    3337          0.0000
CQUAD4      3386       1    3337    3343    3344    3338          0.0000
CQUAD4      3387       1    3338    3344    3345    3339          0.0000
CQUAD4      3388       1    3339    3345    3346    3340          0.0000
CQUAD4      3389       1    3340    3346    3347    3341          0.0000
CQUAD4      3390       1    3342    3348    3349    3343          0.0000
CQUAD4      3391       1    3343    3349    3350    3344          0.0000
CQUAD4      3392       1    3344    3350    3351    3345          0.0000
CQUAD4      3393       1    3345    3351    3352    3346          0.0000
CQUAD4      3394       1    3346    3352    3353    3347          0.0000
CQUAD4      3395       1    3348    3354    3355    3349          0.0000
CQUAD4      3396       1    3349    3355    3356    3350          0.0000
CQUAD4      3397       1    3350    3356    3357    3351          0.0000
CQUAD4      3398       1    3351    3357    3358    3352          0.0000
CQUAD4      3399       1    3352    3358    3359    3353          0.0000
CQUAD4      3400       1    3354    3360    3361    3355          0.0000
CQUAD4      3401       1    3355    3361    3362    3356          0.0000
CQUAD4      3402       1    3356    3362    3363    3357          0.0000
CQUAD4      3403       1    3357    3363    3364    3358          0.0000
CQUAD4      3404       1    3358    3364    3365    3359          0.0000
CQUAD4      3405       1    3360    3366    3367    3361          0.0000
CQUAD4      3406       1    3361    3367    3368    3362          0.0000
CQUAD4      3407       1    3362    3368    3369    3363          0.0000
CQUAD4      3408       1    3363    3369    3370    3364          0.0000
CQUAD4      3409       1    3364    3370    3371    3365          0.0000
CQUAD4      3410       1    3366    3372    3373    3367          0.0000
CQUAD4      3411       1    3367    3373    3374    3368          0.0000
CQUAD4      3412       1    3368    3374    3375    3369          0.0000
CQUAD4      3413       1    3369    3375    3376    3370          0.0000
CQUAD4      3414       1    3370    3376    3377    3371          0.0000
CQUAD4      3415       1    3372    3378    3379    3373          0.0000
CQUAD4      3416       1    3373    3379    3380    3374          0.0000
CQUAD4      3417       1    3374    3380    3381    3375          0.0000
CQUAD4      3418       1    3375    3381    3382    3376          0.0000
CQUAD4      3419       1    3376    3382    3383    3377          0.0000
CQUAD4      3420       1    3378    3384    3385    3379          0.0000
CQUAD4      3421       1    3379    3385    3386    3380          0.0000
CQUAD4      3422       1    3380    3386    3387    3381          0.0000
CQUAD4      3423       1    3381    3387    3388    3382          0.0000
CQUAD4      3424       1    3382    3388    3389    3383          0.0000
CQUAD4      3425       1    3384    3390    3391    3385          0.0000
CQUAD4      3426       1    3385    3391    3392    3386          0.0000
CQUAD4      3427       1    3386    3392    3393    3387          0.0000
CQUAD4      3428       1    3387    3393    3394    3388          0.0000
CQUAD4      3429       1    3388    3394    3395    3389          0.0000
CQUAD4      3430       1    3390    3396    3397    3391          0.0000
CQUAD4      3431       1    3391    3397    3398    3392          0.0000
CQUAD4      3432       1    3392    3398    3399    3393          0.0000
CQUAD4      3433       1    3393    3399    3400    3394          0.0000
CQUAD4      3434       1    3394    3400    3401    3395          0.0000
CQUAD4      3435       1    3396    3402    3403    3397          0.0000
CQUAD4      3436       1    3397    3403    3404    3398          0.0000
CQUAD4      3437       1    3398    3404    3405    3399          0.0000
CQUAD4      3438       1    3399    3405    3406    3400          0.0000
CQUAD4      3439       1    3400    3406    3407    3401          0.0000
CQUAD4      3440       1    3402    3408    3409    3403          0.0000
CQUAD4      3441       1    3403    3409    3410    3404          0.0000
CQUAD4      3442       1    3404    3410    3411    3405          0.0000
CQUAD4      3443       1    3405    3411    3412    3406          0.0000
CQUAD4      3444       1    3406    3412    3413    3407          0.0000
CQUAD4      3445       1    3408    3414    3415    3409          0.0000
CQUAD4      3446       1    3409    3415    3416    3410          0.0000
CQUAD4      3447       1    3410    3416    3417    3411          0.0000
CQUAD4      3448       1    3411    3417    3418    3412          0.0000
CQUAD4      3449       1    3412    3418    3419    3413          0.0000
CQUAD4      3450       1    3414    3420    3421    3415          0.0000
CQUAD4      3451       1    3415    3421    3422    3416          0.0000
CQUAD4      3452       1    3416    3422    3423    3417          0.0000
CQUAD4      3453       1    3417    3423    3424    3418          0.0000
CQUAD4      3454       1    3418    3424    3425    3419          0.0000
CQUAD4      3455       1    3420    3426    3427    3421          0.0000
CQUAD4      3456       1    3421    3427    3428    3422          0.0000
CQUAD4      3457       1    3422    3428    3429    3423          0.0000
CQUAD4      3458       1    3423    3429    3430    3424          0.0000
CQUAD4      3459       1    3424    3430    3431    3425          0.0000
CQUAD4      3460       1    3426    3432    3433    3427          0.0000
CQUAD4      3461       1    3427    3433    3434    3428          0.0000
CQUAD4      3462       1    3428    3434    3435    3429          0.0000
CQUAD4      3463       1    3429    3435    3436    3430          0.0000
CQUAD4      3464       1    3430    3436    3437    3431          0.0000
CQUAD4      3465       1    3432    3438    3439    3433          0.0000
CQUAD4      3466       1    3433    3439    3440    3434          0.0000
CQUAD4      3467       1    3434    3440    3441    3435          0.0000
CQUAD4      3468       1    3435    3441    3442    3436          0.0000
CQUAD4      3469       1    3436    3442    3443    3437          0.0000
CQUAD4      3470       1    3438    3444    3445    3439          0.0000
CQUAD4      3471       1    3439    3445    3446    3440          0.0000
CQUAD4      3472       1    3440    3446    3447    3441          0.0000
CQUAD4      3473       1    3441    3447    3448    3442          0.0000
CQUAD4      3474       1    3442    3448    3449    3443          0.0000
CQUAD4      3475       1    3444    3450    3451    3445          0.0000
CQUAD4      3476       1    3445    3451    3452    3446          0.0000
CQUAD4      3477       1    3446    3452    3453    3447          0.0000
CQUAD4      3478       1    3447    3453    3454    3448          0.0000
CQUAD4      3479       1    3448    3454    3455    3449          0.0000
CQUAD4      3480       1    3450    3456    3457    3451          0.0000
CQUAD4      3481       1    3451    3457    3458    3452          0.0000
CQUAD4      3482       1    3452    3458    3459    3453          0.0000
CQUAD4      3483       1    3453    3459    3460    3454          0.0000
CQUAD4      3484       1    3454    3460    3461    3455          0.0000
CQUAD4      3485       1    3456    3462    3463    3457          0.0000
CQUAD4      3486       1    3457    3463    3464    3458          0.0000
CQUAD4      3487       1    3458    3464    3465    3459          0.0000
CQUAD4      3488       1    3459    3465    3466    3460          0.0000
CQUAD4      3489       1    3460    3466    3467    3461          0.0000
CQUAD4      3490       1    3462    3468    3469    3463          0.0000
CQUAD4      3491       1    3463    3469    3470    3464          0.0000
CQUAD4      3492       1    3464    3470    3471    3465          0.0000
CQUAD4      3493       1    3465    3471    3472    3466          0.0000
CQUAD4      3494       1    3466    3472    3473    3467          0.0000
CQUAD4      3495       1    3468    3474    3475    3469          0.0000
CQUAD4      3496       1    3469    3475    3476    3470          0.0000
CQUAD4      3497       1    3470    3476    3477    3471          0.0000
CQUAD4      3498       1    3471    3477    3478    3472          0.0000
CQUAD4      3499       1    3472    3478    3479    3473          0.0000
CQUAD4      3500       1    4004    3653    2496    3648          0.0000
CQUAD4      3501       1    3653    3654    2502    2496          0.0000
CQUAD4      3502       1    3654    3655    2508    2502          0.0000
CQUAD4      3503       1    3655    3656    2514    2508          0.0000
CQUAD4      3504       1    3656    3657    2520    2514          0.0000
CQUAD4      3505       1    3657    3658    2526    2520          0.0000
CQUAD4      3506       1    3658    3659    2532    2526          0.0000
CQUAD4      3507       1    3659    3660    2538    2532          0.0000
CQUAD4      3508       1    3660    3661    2544    2538          0.0000
CQUAD4      3509       1    3661    3662    2550    2544          0.0000
CQUAD4      3510       1    3662    3663    2556    2550          0.0000
CQUAD4      3511       1    3663    3664    2562    2556          0.0000
CQUAD4      3512       1    3664    3665    2568    2562          0.0000
CQUAD4      3513       1    3665    3666    2574    2568          0.0000
CQUAD4      3514       1    3666    3667    2580    2574          0.0000
CQUAD4      3515       1    3667    3668    2586    2580          0.0000
CQUAD4      3516       1    3668    3669    2592    2586          0.0000
CQUAD4      3517       1    3669    3670    2598    2592          0.0000
CQUAD4      3518       1    3670    3671    2604    2598          0.0000
CQUAD4      3519       1    3671    3672    2610    2604          0.0000
CQUAD4      3520       1    3672    3673    2616    2610          0.0000
CQUAD4      3521       1    3673    3674    2622    2616          0.0000
CQUAD4      3522       1    3674    3675    2628    2622          0.0000
CQUAD4      3523       1    3675    3676    2634    2628          0.0000
CQUAD4      3524       1    3676    3677    2640    2634          0.0000
CQUAD4      3525       1    3677    3678    2646    2640          0.0000
CQUAD4      3526       1    3678    3679    2652    2646          0.0000
CQUAD4      3527       1    3679    3680    2658    2652          0.0000
CQUAD4      3528       1    3680    3681    2664    2658          0.0000
CQUAD4      3529       1    3681    3682    2670    2664          0.0000
CQUAD4      3530       1    3682    3683    2676    2670          0.0000
CQUAD4      3531       1    3683    3684    2682    2676          0.0000
CQUAD4      3532       1    3684    3685    2688    2682          0.0000
CQUAD4      3533       1    3685    3686    2694    2688          0.0000
CQUAD4      3534       1    3686    3687    2700    2694          0.0000
CQUAD4      3535       1    3687    3688    2706    2700          0.0000
CQUAD4      3536       1    3688    3689    2712    2706          0.0000
CQUAD4      3537       1    3689    3690    2718    2712          0.0000
CQUAD4      3538       1    3690    3691    2724    2718          0.0000
CQUAD4      3539       1    3691    3692    2730    2724          0.0000
CQUAD4      3540       1    3692    3693    2736    2730          0.0000
CQUAD4      3541       1    3693    3694    2742    2736          0.0000
CQUAD4      3542       1    3694    3695    2748    2742          0.0000
CQUAD4      3543       1    3695    3696    2754    2748          0.0000
CQUAD4      3544       1    3696    3697    2760    2754          0.0000
CQUAD4      3545       1    3697    3698    2766    2760          0.0000
CQUAD4      3546       1    3698    3699    2772    2766          0.0000
CQUAD4      3547       1    3699    3700    2778    2772          0.0000
CQUAD4      3548       1    3700    3701    2784    2778          0.0000
CQUAD4      3549       1    3701    3702    2790    2784          0.0000
CQUAD4      3550       1    3702    3703    2796    2790          0.0000
CQUAD4      3551       1    3703    3704    2802    2796          0.0000
CQUAD4      3552       1    3704    3705    2808    2802          0.0000
CQUAD4      3553       1    3705    3706    2814    2808          0.0000
CQUAD4      3554       1    3706    3707    2820    2814          0.0000
CQUAD4      3555       1    3707    3708    2826    2820          0.0000
CQUAD4      3556       1    3708    3709    2832    2826          0.0000
CQUAD4      3557       1    3709    3710    2838    2832          0.0000
CQUAD4      3558       1    3710    3711    2844    2838          0.0000
CQUAD4      3559       1    3711    3712    2850    2844          0.0000
CQUAD4      3560       1    3712    3713    2856    2850          0.0000
CQUAD4      3561       1    3713    3714    2862    2856          0.0000
CQUAD4      3562       1    3714    3715    2868    2862          0.0000
CQUAD4      3563       1    3715    3716    2874    2868          0.0000
CQUAD4      3564       1    3716    3717    2880    2874          0.0000
CQUAD4      3565       1    3717    3718    2886    2880          0.0000
CQUAD4      3566       1    3718    3719    2892    2886          0.0000
CQUAD4      3567       1    3719    3720    2898    2892          0.0000
CQUAD4      3568       1    3720    3721    2904    2898          0.0000
CQUAD4      3569       1    3721    3722    2910    2904          0.0000
CQUAD4      3570       1    3722    3723    2916    2910          0.0000
CQUAD4      3571       1    3723    3724    2922    2916          0.0000
CQUAD4      3572       1    3724    3725    2928    2922          0.0000
CQUAD4      3573       1    3725    3726    2934    2928          0.0000
CQUAD4      3574       1    3726    3727    2940    2934          0.0000
CQUAD4      3575       1    3727    3728    2946    2940          0.0000
CQUAD4      3576       1    3728    3729    2952    2946          0.0000
CQUAD4      3577       1    3729    3730    2958    2952          0.0000
CQUAD4      3578       1    3730    3731    2964    2958          0.0000
CQUAD4      3579       1    3731    3732    2970    2964          0.0000
CQUAD4      3580       1    3732    3733    2976    2970          0.0000
CQUAD4      3581       1    3733    3734    2982    2976          0.0000
CQUAD4      3582       1    3734    3735    2988    2982          0.0000
CQUAD4      3583       1    3735    3736    2994    2988          0.0000
CQUAD4      3584       1    3736    3737    3000    2994          0.0000
CQUAD4      3585       1    3737    3738    3006    3000          0.0000
CQUAD4      3586       1    3738    3739    3012    3006          0.0000
CQUAD4      3587       1    3739    3740    3018    3012          0.0000
CQUAD4      3588       1    3740    3741    3024    3018          0.0000
CQUAD4      3589       1    3741    3742    3030    3024          0.0000
CQUAD4      3590       1    3742    3743    3036    3030          0.0000
CQUAD4      3591       1    3743    3744    3042    3036          0.0000
CQUAD4      3592       1    3744    3745    3048    3042          0.0000
CQUAD4      3593       1    3745    3746    3054    3048          0.0000
CQUAD4      3594       1    3746    3747    3060    3054          0.0000
CQUAD4      3595       1    3747    3748    3066    3060          0.0000
CQUAD4      3596       1    3748    3749    3072    3066          0.0000
CQUAD4      3597       1    3749    3750    3078    3072          0.0000
CQUAD4      3598       1    3750    3751    3084    3078          0.0000
CQUAD4      3599       1    3751    3752    3090    3084          0.0000
CQUAD4      3600       1    3752    3753    3096    3090          0.0000
CQUAD4      3601       1    3753    3754    3102    3096          0.0000
CQUAD4      3602       1    3754    3755    3108    3102          0.0000
CQUAD4      3603       1    3755    3756    3114    3108          0.0000
CQUAD4      3604       1    3756    3757    3120    3114          0.0000
CQUAD4      3605       1    3757    3758    3126    3120          0.0000
CQUAD4      3606       1    3758    3759    3132    3126          0.0000
CQUAD4      3607       1    3759    3760    3138    3132          0.0000
CQUAD4      3608       1    3760    3761    3144    3138          0.0000
CQUAD4      3609       1    3761    3762    3150    3144          0.0000
CQUAD4      3610       1    3762    3763    3156    3150          0.0000
CQUAD4      3611       1    3763    3764    3162    3156          0.0000
CQUAD4      3612       1    3764    3765    3168    3162          0.0000
CQUAD4      3613       1    3765    3766    3174    3168          0.0000
CQUAD4      3614       1    3766    3767    3180    3174          0.0000
CQUAD4      3615       1    3767    3768    3186    3180          0.0000
CQUAD4      3616       1    3768    3769    3192    3186          0.0000
CQUAD4      3617       1    3769    3770    3198    3192          0.0000
CQUAD4      3618       1    3770    3771    3204    3198          0.0000
CQUAD4      3619       1    3771    3772    3210    3204          0.0000
CQUAD4      3620       1    3772    3773    3216    3210          0.0000
CQUAD4      3621       1    3773    3774    3222    3216          0.0000
CQUAD4      3622       1    3774    3775    3228    3222          0.0000
CQUAD4      3623       1    3775    3776    3234    3228          0.0000
CQUAD4      3624       1    3776    3777    3240    3234          0.0000
CQUAD4      3625       1    3777    3778    3246    3240          0.0000
CQUAD4      3626       1    3778    3779    3252    3246          0.0000
CQUAD4      3627       1    3779    3780    3258    3252          0.0000
CQUAD4      3628       1    3780    3781    3264    3258          0.0000
CQUAD4      3629       1    3781    3782    3270    3264          0.0000
CQUAD4      3630       1    3782    3783    3276    3270          0.0000
CQUAD4      3631       1    3783    3784    3282    3276          0.0000
CQUAD4      3632       1    3784    3785    3288    3282          0.0000
CQUAD4      3633       1    3785    3786    3294    3288          0.0000
CQUAD4      3634       1    3786    3787    3300    3294          0.0000
CQUAD4      3635       1    3787    3788    3306    3300          0.0000
CQUAD4      3636       1    3788    3789    3312    3306          0.0000
CQUAD4      3637       1    3789    3790    3318    3312          0.0000
CQUAD4      3638       1    3790    3791    3324    3318          0.0000
CQUAD4      3639       1    3791    3792    3330    3324          0.0000
CQUAD4      3640       1    3792    3793    3336    3330          0.0000
CQUAD4      3641       1    3793    3794    3342    3336          0.0000
CQUAD4      3642       1    3794    3795    3348    3342          0.0000
CQUAD4      3643       1    3795    3796    3354    3348          0.0000
CQUAD4      3644       1    3796    3797    3360    3354          0.0000
CQUAD4      3645       1    3797    3798    3366    3360          0.0000
CQUAD4      3646       1    3798    3799    3372    3366          0.0000
CQUAD4      3647       1    3799    3800    3378    3372          0.0000
CQUAD4      3648       1    3800    3801    3384    3378          0.0000
CQUAD4      3649       1    3801    3802    3390    3384          0.0000
CQUAD4      3650       1    3802    3803    3396    3390          0.0000
CQUAD4      3651       1    3803    3804    3402    3396          0.0000
CQUAD4      3652       1    3804    3805    3408    3402          0.0000
CQUAD4      3653       1    3805    3806    3414    3408          0.0000
CQUAD4      3654       1    3806    3807    3420    3414          0.0000
CQUAD4      3655       1    3807    3808    3426    3420          0.0000
CQUAD4      3656       1    3808    3809    3432    3426          0.0000
CQUAD4      3657       1    3809    3810    3438    3432          0.0000
CQUAD4      3658       1    3810    3811    3444    3438          0.0000
CQUAD4      3659       1    3811    3812    3450    3444          0.0000
CQUAD4      3660       1    3812    3813    3456    3450          0.0000
CQUAD4      3661       1    3813    3814    3462    3456          0.0000
CQUAD4      3662       1    3814    3815    3468    3462          0.0000
CQUAD4      3663       1    3815    3816    3474    3468          0.0000
CQUAD4      3664       1    3816    4005    4000    3474          0.0000
CQUAD4      3665       1    3474    4000    3999    3475          0.0000
CQUAD4      3666       1    3475    3999    3998    3476          0.0000
CQUAD4      3667       1    3476    3998    3997    3477          0.0000
CQUAD4      3668       1    3477    3997    3996    3478          0.0000
CQUAD4      3669       1    3478    3996    3995    3479          0.0000
CQUAD4      3670       1    3479    3995    4007    3831          0.0000
CQUAD4      3671       1    3473    3479    3831    3832          0.0000
CQUAD4      3672       1    3467    3473    3832    3833          0.0000
CQUAD4      3673       1    3461    3467    3833    3834          0.0000
CQUAD4      3674       1    3455    3461    3834    3835          0.0000
CQUAD4      3675       1    3449    3455    3835    3836          0.0000
CQUAD4      3676       1    3443    3449    3836    3837          0.0000
CQUAD4      3677       1    3437    3443    3837    3838          0.0000
CQUAD4      3678       1    3431    3437    3838    3839          0.0000
CQUAD4      3679       1    3425    3431    3839    3840          0.0000
CQUAD4      3680       1    3419    3425    3840    3841          0.0000
CQUAD4      3681       1    3413    3419    3841    3842          0.0000
CQUAD4      3682       1    3407    3413    3842    3843          0.0000
CQUAD4      3683       1    3401    3407    3843    3844          0.0000
CQUAD4      3684       1    3395    3401    3844    3845          0.0000
CQUAD4      3685       1    3389    3395    3845    3846          0.0000
CQUAD4      3686       1    3383    3389    3846    3847          0.0000
CQUAD4      3687       1    3377    3383    3847    3848          0.0000
CQUAD4      3688       1    3371    3377    3848    3849          0.0000
CQUAD4      3689       1    3365    3371    3849    3850          0.0000
CQUAD4      3690       1    3359    3365    3850    3851          0.0000
CQUAD4      3691       1    3353    3359    3851    3852          0.0000
CQUAD4      3692       1    3347    3353    3852    3853          0.0000
CQUAD4      3693       1    3341    3347    3853    3854          0.0000
CQUAD4      3694       1    3335    3341    3854    3855          0.0000
CQUAD4      3695       1    3329    3335    3855    3856          0.0000
CQUAD4      3696       1    3323    3329    3856    3857          0.0000
CQUAD4      3697       1    3317    3323    3857    3858          0.0000
CQUAD4      3698       1    3311    3317    3858    3859          0.0000
CQUAD4      3699       1    3305    3311    3859    3860          0.0000
CQUAD4      3700       1    3299    3305    3860    3861          0.0000
CQUAD4      3701       1    3293    3299    3861    3862          0.0000
CQUAD4      3702       1    3287    3293    3862    3863          0.0000
CQUAD4      3703       1    3281    3287    3863    3864          0.0000
CQUAD4      3704       1    3275    3281    3864    3865          0.0000
CQUAD4      3705       1    3269    3275    3865    3866          0.0000
CQUAD4      3706       1    3263    3269    3866    3867          0.0000
CQUAD4      3707       1    3257    3263    3867    3868          0.0000
CQUAD4      3708       1    3251    3257    3868    3869          0.0000
CQUAD4      3709       1    3245    3251    3869    3870          0.0000
CQUAD4      3710       1    3239    3245    3870    3871          0.0000
CQUAD4      3711       1    3233    3239    3871    3872          0.0000
CQUAD4      3712       1    3227    3233    3872    3873          0.0000
CQUAD4      3713       1    3221    3227    3873    3874          0.0000
CQUAD4      3714       1    3215    3221    3874    3875          0.0000
CQUAD4      3715       1    3209    3215    3875    3876          0.0000
CQUAD4      3716       1    3203    3209    3876    3877          0.0000
CQUAD4      3717       1    3197    3203    3877    3878          0.0000
CQUAD4      3718       1    3191    3197    3878    3879          0.0000
CQUAD4      3719       1    3185    3191    3879    3880          0.0000
CQUAD4      3720       1    3179    3185    3880    3881          0.0000
CQUAD4      3721       1    3173    3179    3881    3882          0.0000
CQUAD4      3722       1    3167    3173    3882    3883          0.0000
CQUAD4      3723       1    3161    3167    3883    3884          0.0000
CQUAD4      3724       1    3155    3161    3884    3885          0.0000
CQUAD4      3725       1    3149    3155    3885    3886          0.0000
CQUAD4      3726       1    3143    3149    3886    3887          0.0000
CQUAD4      3727       1    3137    3143    3887    3888          0.0000
CQUAD4      3728       1    3131    3137    3888    3889          0.0000
CQUAD4      3729       1    3125    3131    3889    3890          0.0000
CQUAD4      3730       1    3119    3125    3890    3891          0.0000
CQUAD4      3731       1    3113    3119    3891    3892          0.0000
CQUAD4      3732       1    3107    3113    3892    3893          0.0000
CQUAD4      3733       1    3101    3107    3893    3894          0.0000
CQUAD4      3734       1    3095    3101    3894    3895          0.0000
CQUAD4      3735       1    3089    3095    3895    3896          0.0000
CQUAD4      3736       1    3083    3089    3896    3897          0.0000
CQUAD4      3737       1    3077    3083    3897    3898          0.0000
CQUAD4      3738       1    3071    3077    3898    3899          0.0000
CQUAD4      3739       1    3065    3071    3899    3900          0.0000
CQUAD4      3740       1    3059    3065    3900    3901          0.0000
CQUAD4      3741       1    3053    3059    3901    3902          0.0000
CQUAD4      3742       1    3047    3053    3902    3903          0.0000
CQUAD4      3743       1    3041    3047    3903    3904          0.0000
CQUAD4      3744       1    3035    3041    3904    3905          0.0000
CQUAD4      3745       1    3029    3035    3905    3906          0.0000
CQUAD4      3746       1    3023    3029    3906    3907          0.0000
CQUAD4      3747       1    3017    3023    3907    3908          0.0000
CQUAD4      3748       1    3011    3017    3908    3909          0.0000
CQUAD4      3749       1    3005    3011    3909    3910          0.0000
CQUAD4      3750       1    2999    3005    3910    3911          0.0000
CQUAD4      3751       1    2993    2999    3911    3912          0.0000
CQUAD4      3752       1    2987    2993    3912    3913          0.0000
CQUAD4      3753       1    2981    2987    3913    3914          0.0000
CQUAD4      3754       1    2975    2981    3914    3915          0.0000
CQUAD4      3755       1    2969    2975    3915    3916          0.0000
CQUAD4      3756       1    2963    2969    3916    3917          0.0000
CQUAD4      3757       1    2957    2963    3917    3918          0.0000
CQUAD4      3758       1    2951    2957    3918    3919          0.0000
CQUAD4      3759       1    2945    2951    3919    3920          0.0000
CQUAD4      3760       1    2939    2945    3920    3921          0.0000
CQUAD4      3761       1    2933    2939    3921    3922          0.0000
CQUAD4      3762       1    2927    2933    3922    3923          0.0000
CQUAD4      3763       1    2921    2927    3923    3924          0.0000
CQUAD4      3764       1    2915    2921    3924    3925          0.0000
CQUAD4      3765       1    2909    2915    3925    3926          0.0000
CQUAD4      3766       1    2903    2909    3926    3927          0.0000
CQUAD4      3767       1    2897    2903    3927    3928          0.0000
CQUAD4      3768       1    2891    2897    3928    3929          0.0000
CQUAD4      3769       1    2885    2891    3929    3930          0.0000
CQUAD4      3770       1    2879    2885    3930    3931          0.0000
CQUAD4      3771       1    2873    2879    3931    3932          0.0000
CQUAD4      3772       1    2867    2873    3932    3933          0.0000
CQUAD4      3773       1    2861    2867    3933    3934          0.0000
CQUAD4      3774       1    2855    2861    3934    3935          0.0000
CQUAD4      3775       1    2849    2855    3935    3936          0.0000
CQUAD4      3776       1    2843    2849    3936    3937          0.0000
CQUAD4      3777       1    2837    2843    3937    3938          0.0000
CQUAD4      3778       1    2831    2837    3938    3939          0.0000
CQUAD4      3779       1    2825    2831    3939    3940          0.0000
CQUAD4      3780       1    2819    2825    3940    3941          0.0000
CQUAD4      3781       1    2813    2819    3941    3942          0.0000
CQUAD4      3782       1    2807    2813    3942    3943          0.0000
CQUAD4      3783       1    2801    2807    3943    3944          0.0000
CQUAD4      3784       1    2795    2801    3944    3945          0.0000
CQUAD4      3785       1    2789    2795    3945    3946          0.0000
CQUAD4      3786       1    2783    2789    3946    3947          0.0000
CQUAD4      3787       1    2777    2783    3947    3948          0.0000
CQUAD4      3788       1    2771    2777    3948    3949          0.0000
CQUAD4      3789       1    2765    2771    3949    3950          0.0000
CQUAD4      3790       1    2759    2765    3950    3951          0.0000
CQUAD4      3791       1    2753    2759    3951    3952          0.0000
CQUAD4      3792       1    2747    2753    3952    3953          0.0000
CQUAD4      3793       1    2741    2747    3953    3954          0.0000
CQUAD4      3794       1    2735    2741    3954    3955          0.0000
CQUAD4      3795       1    2729    2735    3955    3956          0.0000
CQUAD4      3796       1    2723    2729    3956    3957          0.0000
CQUAD4      3797       1    2717    2723    3957    3958          0.0000
CQUAD4      3798       1    2711    2717    3958    3959          0.0000
CQUAD4      3799       1    2705    2711    3959    3960          0.0000
CQUAD4      3800       1    2699    2705    3960    3961          0.0000
CQUAD4      3801       1    2693    2699    3961    3962          0.0000
CQUAD4      3802       1    2687    2693    3962    3963          0.0000
CQUAD4      3803       1    2681    2687    3963    3964          0.0000
CQUAD4      3804       1    2675    2681    3964    3965          0.0000
CQUAD4      3805       1    2669    2675    3965    3966          0.0000
CQUAD4      3806       1    2663    2669    3966    3967          0.0000
CQUAD4      3807       1    2657    2663    3967    3968          0.0000
CQUAD4      3808       1    2651    2657    3968    3969          0.0000
CQUAD4      3809       1    2645    2651    3969    3970          0.0000
CQUAD4      3810       1    2639    2645    3970    3971          0.0000
CQUAD4      3811       1    2633    2639    3971    3972          0.0000
CQUAD4      3812       1    2627    2633    3972    3973          0.0000
CQUAD4      3813       1    2621    2627    3973    3974          0.0000
CQUAD4      3814       1    2615    2621    3974    3975          0.0000
CQUAD4      3815       1    2609    2615    3975    3976          0.0000
CQUAD4      3816       1    2603    2609    3976    3977          0.0000
CQUAD4      3817       1    2597    2603    3977    3978          0.0000
CQUAD4      3818       1    2591    2597    3978    3979          0.0000
CQUAD4      3819       1    2585    2591    3979    3980          0.0000
CQUAD4      3820       1    2579    2585    3980    3981          0.0000
CQUAD4      3821       1    2573    2579    3981    3982          0.0000
CQUAD4      3822       1    2567    2573    3982    3983          0.0000
CQUAD4      3823       1    2561    2567    3983    3984          0.0000
CQUAD4      3824       1    2555    2561    3984    3985          0.0000
CQUAD4      3825       1    2549    2555    3985    3986          0.0000
CQUAD4      3826       1    2543    2549    3986    3987          0.0000
CQUAD4      3827       1    2537    2543    3987    3988          0.0000
CQUAD4      3828       1    2531    2537    3988    3989          0.0000
CQUAD4      3829       1    2525    2531    3989    3990          0.0000
CQUAD4      3830       1    2519    2525    3990    3991          0.0000
CQUAD4      3831       1    2513    2519    3991    3992          0.0000
CQUAD4      3832       1    2507    2513    3992    3993          0.0000
CQUAD4      3833       1    2501    2507    3993    3994          0.0000
CQUAD4      3834       1    4001    2501    3994    4006          0.0000
CQUAD4      3835       1    3644    2500    2501    4001          0.0000
CQUAD4      3836       1    3645    2499    2500    3644          0.0000
CQUAD4      3837       1    3646    2498    2499    3645          0.0000
CQUAD4      3838       1    3647    2497    2498    3646          0.0000
CQUAD4      3839       1    3648    2496    2497    3647          0.0000
CQUAD4      1365       1    1348    1355    1356    1349          0.0000
CQUAD4      1366       1    1349    1356    1357    1350          0.0000
CQUAD4      1367       1    1350    1357    1358    1351          0.0000
CQUAD4      1368       1    1351    1358    1359    1352          0.0000
CQUAD4      1369       1    1352    1359    1360    1353          0.0000
CQUAD4      1370       1    1353    1360    1361    1354          0.0000
CQUAD4      1371       1    1355    1362    1363    1356          0.0000
CQUAD4      1372       1    1356    1363    1364    1357          0.0000
CQUAD4      1373       1    1357    1364    1365    1358          0.0000
CQUAD4      1374       1    1358    1365    1366    1359          0.0000
CQUAD4      1375       1    1359    1366    1367    1360          0.0000
CQUAD4      1376       1    1360    1367    1368    1361          0.0000
CQUAD4      1377       1    1362    1369    1370    1363          0.0000
CQUAD4      1378       1    1363    1370    1371    1364          0.0000
CQUAD4      1379       1    1364    1371    1372    1365          0.0000
CQUAD4      1380       1    1365    1372    1373    1366          0.0000
CQUAD4      1381       1    1366    1373    1374    1367          0.0000
CQUAD4      1382       1    1367    1374    1375    1368          0.0000
CQUAD4      1383       1    1369    1376    1377    1370          0.0000
CQUAD4      1384       1    1370    1377    1378    1371          0.0000
CQUAD4      1385       1    1371    1378    1379    1372          0.0000
CQUAD4      1386       1    1372    1379    1380    1373          0.0000
CQUAD4      1387       1    1373    1380    1381    1374          0.0000
CQUAD4      1388       1    1374    1381    1382    1375          0.0000
CQUAD4      1389       1    1376    1383    1384    1377          0.0000
CQUAD4      1390       1    1377    1384    1385    1378          0.0000
CQUAD4      1391       1    1378    1385    1386    1379          0.0000
CQUAD4      1392       1    1379    1386    1387    1380          0.0000
CQUAD4      1393       1    1380    1387    1388    1381          0.0000
CQUAD4      1394       1    1381    1388    1389    1382          0.0000
CQUAD4      1395       1    1383    1390    1391    1384          0.0000
CQUAD4      1396       1    1384    1391    1392    1385          0.0000
CQUAD4      1397       1    1385    1392    1393    1386          0.0000
CQUAD4      1398       1    1386    1393    1394    1387          0.0000
CQUAD4      1399       1    1387    1394    1395    1388          0.0000
CQUAD4      1400       1    1388    1395    1396    1389          0.0000
CQUAD4      1401       1    1390    1397    1398    1391          0.0000
CQUAD4      1402       1    1391    1398    1399    1392          0.0000
CQUAD4      1403       1    1392    1399    1400    1393          0.0000
CQUAD4      1404       1    1393    1400    1401    1394          0.0000
CQUAD4      1405       1    1394    1401    1402    1395          0.0000
CQUAD4      1406       1    1395    1402    1403    1396          0.0000
CQUAD4      1407       1    1397    1404    1405    1398          0.0000
CQUAD4      1408       1    1398    1405    1406    1399          0.0000
CQUAD4      1409       1    1399    1406    1407    1400          0.0000
CQUAD4      1410       1    1400    1407    1408    1401          0.0000
CQUAD4      1411       1    1401    1408    1409    1402          0.0000
CQUAD4      1412       1    1402    1409    1410    1403          0.0000
CQUAD4      1413       1    1404    1411    1412    1405          0.0000
CQUAD4      1414       1    1405    1412    1413    1406          0.0000
CQUAD4      1415       1    1406    1413    1414    1407          0.0000
CQUAD4      1416       1    1407    1414    1415    1408          0.0000
CQUAD4      1417       1    1408    1415    1416    1409          0.0000
CQUAD4      1418       1    1409    1416    1417    1410          0.0000
CQUAD4      1419       1    1411    1418    1419    1412          0.0000
CQUAD4      1420       1    1412    1419    1420    1413          0.0000
CQUAD4      1421       1    1413    1420    1421    1414          0.0000
CQUAD4      1422       1    1414    1421    1422    1415          0.0000
CQUAD4      1423       1    1415    1422    1423    1416          0.0000
CQUAD4      1424       1    1416    1423    1424    1417          0.0000
CQUAD4      1425       1    1418    1425    1426    1419          0.0000
CQUAD4      1426       1    1419    1426    1427    1420          0.0000
CQUAD4      1427       1    1420    1427    1428    1421          0.0000
CQUAD4      1428       1    1421    1428    1429    1422          0.0000
CQUAD4      1429       1    1422    1429    1430    1423          0.0000
CQUAD4      1430       1    1423    1430    1431    1424          0.0000
CQUAD4      1431       1    1425    1432    1433    1426          0.0000
CQUAD4      1432       1    1426    1433    1434    1427          0.0000
CQUAD4      1433       1    1427    1434    1435    1428          0.0000
CQUAD4      1434       1    1428    1435    1436    1429          0.0000
CQUAD4      1435       1    1429    1436    1437    1430          0.0000
CQUAD4      1436       1    1430    1437    1438    1431          0.0000
CQUAD4      1437       1    1432    1439    1440    1433          0.0000
CQUAD4      1438       1    1433    1440    1441    1434          0.0000
CQUAD4      1439       1    1434    1441    1442    1435          0.0000
CQUAD4      1440       1    1435    1442    1443    1436          0.0000
CQUAD4      1441       1    1436    1443    1444    1437          0.0000
CQUAD4      1442       1    1437    1444    1445    1438          0.0000
CQUAD4      1443       1    1439    1446    1447    1440          0.0000
CQUAD4      1444       1    1440    1447    1448    1441          0.0000
CQUAD4      1445       1    1441    1448    1449    1442          0.0000
CQUAD4      1446       1    1442    1449    1450    1443          0.0000
CQUAD4      1447       1    1443    1450    1451    1444          0.0000
CQUAD4      1448       1    1444    1451    1452    1445          0.0000
CQUAD4      1449       1    1446    1453    1454    1447          0.0000
CQUAD4      1450       1    1447    1454    1455    1448          0.0000
CQUAD4      1451       1    1448    1455    1456    1449          0.0000
CQUAD4      1452       1    1449    1456    1457    1450          0.0000
CQUAD4      1453       1    1450    1457    1458    1451          0.0000
CQUAD4      1454       1    1451    1458    1459    1452          0.0000
CQUAD4      1455       1    1453    1460    1461    1454          0.0000
CQUAD4      1456       1    1454    1461    1462    1455          0.0000
CQUAD4      1457       1    1455    1462    1463    1456          0.0000
CQUAD4      1458       1    1456    1463    1464    1457          0.0000
CQUAD4      1459       1    1457    1464    1465    1458          0.0000
CQUAD4      1460       1    1458    1465    1466    1459          0.0000
CQUAD4      1461       1    1460    1467    1468    1461          0.0000
CQUAD4      1462       1    1461    1468    1469    1462          0.0000
CQUAD4      1463       1    1462    1469    1470    1463          0.0000
CQUAD4      1464       1    1463    1470    1471    1464          0.0000
CQUAD4      1465       1    1464    1471    1472    1465          0.0000
CQUAD4      1466       1    1465    1472    1473    1466          0.0000
CQUAD4      1467       1    1467    1474    1475    1468          0.0000
CQUAD4      1468       1    1468    1475    1476    1469          0.0000
CQUAD4      1469       1    1469    1476    1477    1470          0.0000
CQUAD4      1470       1    1470    1477    1478    1471          0.0000
CQUAD4      1471       1    1471    1478    1479    1472          0.0000
CQUAD4      1472       1    1472    1479    1480    1473          0.0000
CQUAD4      1473       1    1474    1481    1482    1475          0.0000
CQUAD4      1474       1    1475    1482    1483    1476          0.0000
CQUAD4      1475       1    1476    1483    1484    1477          0.0000
CQUAD4      1476       1    1477    1484    1485    1478          0.0000
CQUAD4      1477       1    1478    1485    1486    1479          0.0000
CQUAD4      1478       1    1479    1486    1487    1480          0.0000
CQUAD4      1479       1    1481    1488    1489    1482          0.0000
CQUAD4      1480       1    1482    1489    1490    1483          0.0000
CQUAD4      1481       1    1483    1490    1491    1484          0.0000
CQUAD4      1482       1    1484    1491    1492    1485          0.0000
CQUAD4      1483       1    1485    1492    1493    1486          0.0000
CQUAD4      1484       1    1486    1493    1494    1487          0.0000
CQUAD4      1485       1    1488    1495    1496    1489          0.0000
CQUAD4      1486       1    1489    1496    1497    1490          0.0000
CQUAD4      1487       1    1490    1497    1498    1491          0.0000
CQUAD4      1488       1    1491    1498    1499    1492          0.0000
CQUAD4      1489       1    1492    1499    1500    1493          0.0000
CQUAD4      1490       1    1493    1500    1501    1494          0.0000
CQUAD4      1491       1    1495    1502    1503    1496          0.0000
CQUAD4      1492       1    1496    1503    1504    1497          0.0000
CQUAD4      1493       1    1497    1504    1505    1498          0.0000
CQUAD4      1494       1    1498    1505    1506    1499          0.0000
CQUAD4      1495       1    1499    1506    1507    1500          0.0000
CQUAD4      1496       1    1500    1507    1508    1501          0.0000
CQUAD4      1497       1    1502    1509    1510    1503          0.0000
CQUAD4      1498       1    1503    1510    1511    1504          0.0000
CQUAD4      1499       1    1504    1511    1512    1505          0.0000
CQUAD4      1500       1    1505    1512    1513    1506          0.0000
CQUAD4      1501       1    1506    1513    1514    1507          0.0000
CQUAD4      1502       1    1507    1514    1515    1508          0.0000
CQUAD4      1503       1    1509    1516    1517    1510          0.0000
CQUAD4      1504       1    1510    1517    1518    1511          0.0000
CQUAD4      1505       1    1511    1518    1519    1512          0.0000
CQUAD4      1506       1    1512    1519    1520    1513          0.0000
CQUAD4      1507       1    1513    1520    1521    1514          0.0000
CQUAD4      1508       1    1514    1521    1522    1515          0.0000
CQUAD4      1509       1    1516    1523    1524    1517          0.0000
CQUAD4      1510       1    1517    1524    1525    1518          0.0000
CQUAD4      1511       1    1518    1525    1526    1519          0.0000
CQUAD4      1512       1    1519    1526    1527    1520          0.0000
CQUAD4      1513       1    1520    1527    1528    1521          0.0000
CQUAD4      1514       1    1521    1528    1529    1522          0.0000
CQUAD4      1515       1    1523    1530    1531    1524          0.0000
CQUAD4      1516       1    1524    1531    1532    1525          0.0000
CQUAD4      1517       1    1525    1532    1533    1526          0.0000
CQUAD4      1518       1    1526    1533    1534    1527          0.0000
CQUAD4      1519       1    1527    1534    1535    1528          0.0000
CQUAD4      1520       1    1528    1535    1536    1529          0.0000
CQUAD4      1521       1    1530    1537    1538    1531          0.0000
CQUAD4      1522       1    1531    1538    1539    1532          0.0000
CQUAD4      1523       1    1532    1539    1540    1533          0.0000
CQUAD4      1524       1    1533    1540    1541    1534          0.0000
CQUAD4      1525       1    1534    1541    1542    1535          0.0000
CQUAD4      1526       1    1535    1542    1543    1536          0.0000
CQUAD4      1527       1    1537    1544    1545    1538          0.0000
CQUAD4      1528       1    1538    1545    1546    1539          0.0000
CQUAD4      1529       1    1539    1546    1547    1540          0.0000
CQUAD4      1530       1    1540    1547    1548    1541          0.0000
CQUAD4      1531       1    1541    1548    1549    1542          0.0000
CQUAD4      1532       1    1542    1549    1550    1543          0.0000
CQUAD4      1533       1    1544    1551    1552    1545          0.0000
CQUAD4      1534       1    1545    1552    1553    1546          0.0000
CQUAD4      1535       1    1546    1553    1554    1547          0.0000
CQUAD4      1536       1    1547    1554    1555    1548          0.0000
CQUAD4      1537       1    1548    1555    1556    1549          0.0000
CQUAD4      1538       1    1549    1556    1557    1550          0.0000
CQUAD4      1539       1    1551    1558    1559    1552          0.0000
CQUAD4      1540       1    1552    1559    1560    1553          0.0000
CQUAD4      1541       1    1553    1560    1561    1554          0.0000
CQUAD4      1542       1    1554    1561    1562    1555          0.0000
CQUAD4      1543       1    1555    1562    1563    1556          0.0000
CQUAD4      1544       1    1556    1563    1564    1557          0.0000
CQUAD4      1545       1    1558    1565    1566    1559          0.0000
CQUAD4      1546       1    1559    1566    1567    1560          0.0000
CQUAD4      1547       1    1560    1567    1568    1561          0.0000
CQUAD4      1548       1    1561    1568    1569    1562          0.0000
CQUAD4      1549       1    1562    1569    1570    1563          0.0000
CQUAD4      1550       1    1563    1570    1571    1564          0.0000
CQUAD4      1551       1    1565    1572    1573    1566          0.0000
CQUAD4      1552       1    1566    1573    1574    1567          0.0000
CQUAD4      1553       1    1567    1574    1575    1568          0.0000
CQUAD4      1554       1    1568    1575    1576    1569          0.0000
CQUAD4      1555       1    1569    1576    1577    1570          0.0000
CQUAD4      1556       1    1570    1577    1578    1571          0.0000
CQUAD4      1557       1    1572    1579    1580    1573          0.0000
CQUAD4      1558       1    1573    1580    1581    1574          0.0000
CQUAD4      1559       1    1574    1581    1582    1575          0.0000
CQUAD4      1560       1    1575    1582    1583    1576          0.0000
CQUAD4      1561       1    1576    1583    1584    1577          0.0000
CQUAD4      1562       1    1577    1584    1585    1578          0.0000
CQUAD4      1563       1    1579    1586    1587    1580          0.0000
CQUAD4      1564       1    1580    1587    1588    1581          0.0000
CQUAD4      1565       1    1581    1588    1589    1582          0.0000
CQUAD4      1566       1    1582    1589    1590    1583          0.0000
CQUAD4      1567       1    1583    1590    1591    1584          0.0000
CQUAD4      1568       1    1584    1591    1592    1585          0.0000
CQUAD4      1569       1    1586    1593    1594    1587          0.0000
CQUAD4      1570       1    1587    1594    1595    1588          0.0000
CQUAD4      1571       1    1588    1595    1596    1589          0.0000
CQUAD4      1572       1    1589    1596    1597    1590          0.0000
CQUAD4      1573       1    1590    1597    1598    1591          0.0000
CQUAD4      1574       1    1591    1598    1599    1592          0.0000
CQUAD4      1575       1    1593    1600    1601    1594          0.0000
CQUAD4      1576       1    1594    1601    1602    1595          0.0000
CQUAD4      1577       1    1595    1602    1603    1596          0.0000
CQUAD4      1578       1    1596    1603    1604    1597          0.0000
CQUAD4      1579       1    1597    1604    1605    1598          0.0000
CQUAD4      1580       1    1598    1605    1606    1599          0.0000
CQUAD4      1581       1    1600    1607    1608    1601          0.0000
CQUAD4      1582       1    1601    1608    1609    1602          0.0000
CQUAD4      1583       1    1602    1609    1610    1603          0.0000
CQUAD4      1584       1    1603    1610    1611    1604          0.0000
CQUAD4      1585       1    1604    1611    1612    1605          0.0000
CQUAD4      1586       1    1605    1612    1613    1606          0.0000
CQUAD4      1587       1    1607    1614    1615    1608          0.0000
CQUAD4      1588       1    1608    1615    1616    1609          0.0000
CQUAD4      1589       1    1609    1616    1617    1610          0.0000
CQUAD4      1590       1    1610    1617    1618    1611          0.0000
CQUAD4      1591       1    1611    1618    1619    1612          0.0000
CQUAD4      1592       1    1612    1619    1620    1613          0.0000
CQUAD4      1593       1    1614    1621    1622    1615          0.0000
CQUAD4      1594       1    1615    1622    1623    1616          0.0000
CQUAD4      1595       1    1616    1623    1624    1617          0.0000
CQUAD4      1596       1    1617    1624    1625    1618          0.0000
CQUAD4      1597       1    1618    1625    1626    1619          0.0000
CQUAD4      1598       1    1619    1626    1627    1620          0.0000
CQUAD4      1599       1    1621    1628    1629    1622          0.0000
CQUAD4      1600       1    1622    1629    1630    1623          0.0000
CQUAD4      1601       1    1623    1630    1631    1624          0.0000
CQUAD4      1602       1    1624    1631    1632    1625          0.0000
CQUAD4      1603       1    1625    1632    1633    1626          0.0000
CQUAD4      1604       1    1626    1633    1634    1627          0.0000
CQUAD4      1605       1    1628    1635    1636    1629          0.0000
CQUAD4      1606       1    1629    1636    1637    1630          0.0000
CQUAD4      1607       1    1630    1637    1638    1631          0.0000
CQUAD4      1608       1    1631    1638    1639    1632          0.0000
CQUAD4      1609       1    1632    1639    1640    1633          0.0000
CQUAD4      1610       1    1633    1640    1641    1634          0.0000
CQUAD4      1611       1    1635    1642    1643    1636          0.0000
CQUAD4      1612       1    1636    1643    1644    1637          0.0000
CQUAD4      1613       1    1637    1644    1645    1638          0.0000
CQUAD4      1614       1    1638    1645    1646    1639          0.0000
CQUAD4      1615       1    1639    1646    1647    1640          0.0000
CQUAD4      1616       1    1640    1647    1648    1641          0.0000
CQUAD4      1617       1    1642    1649    1650    1643          0.0000
CQUAD4      1618       1    1643    1650    1651    1644          0.0000
CQUAD4      1619       1    1644    1651    1652    1645          0.0000
CQUAD4      1620       1    1645    1652    1653    1646          0.0000
CQUAD4      1621       1    1646    1653    1654    1647          0.0000
CQUAD4      1622       1    1647    1654    1655    1648          0.0000
CQUAD4      1623       1    1649    1656    1657    1650          0.0000
CQUAD4      1624       1    1650    1657    1658    1651          0.0000
CQUAD4      1625       1    1651    1658    1659    1652          0.0000
CQUAD4      1626       1    1652    1659    1660    1653          0.0000
CQUAD4      1627       1    1653    1660    1661    1654          0.0000
CQUAD4      1628       1    1654    1661    1662    1655          0.0000
CQUAD4      1629       1    1656    1663    1664    1657          0.0000
CQUAD4      1630       1    1657    1664    1665    1658          0.0000
CQUAD4      1631       1    1658    1665    1666    1659          0.0000
CQUAD4      1632       1    1659    1666    1667    1660          0.0000
CQUAD4      1633       1    1660    1667    1668    1661          0.0000
CQUAD4      1634       1    1661    1668    1669    1662          0.0000
CQUAD4      1635       1    1663    1670    1671    1664          0.0000
CQUAD4      1636       1    1664    1671    1672    1665          0.0000
CQUAD4      1637       1    1665    1672    1673    1666          0.0000
CQUAD4      1638       1    1666    1673    1674    1667          0.0000
CQUAD4      1639       1    1667    1674    1675    1668          0.0000
CQUAD4      1640       1    1668    1675    1676    1669          0.0000
CQUAD4      1641       1    1670    1677    1678    1671          0.0000
CQUAD4      1642       1    1671    1678    1679    1672          0.0000
CQUAD4      1643       1    1672    1679    1680    1673          0.0000
CQUAD4      1644       1    1673    1680    1681    1674          0.0000
CQUAD4      1645       1    1674    1681    1682    1675          0.0000
CQUAD4      1646       1    1675    1682    1683    1676          0.0000
CQUAD4      1647       1    1677    1684    1685    1678          0.0000
CQUAD4      1648       1    1678    1685    1686    1679          0.0000
CQUAD4      1649       1    1679    1686    1687    1680          0.0000
CQUAD4      1650       1    1680    1687    1688    1681          0.0000
CQUAD4      1651       1    1681    1688    1689    1682          0.0000
CQUAD4      1652       1    1682    1689    1690    1683          0.0000
CQUAD4      1653       1    1684    1691    1692    1685          0.0000
CQUAD4      1654       1    1685    1692    1693    1686          0.0000
CQUAD4      1655       1    1686    1693    1694    1687          0.0000
CQUAD4      1656       1    1687    1694    1695    1688          0.0000
CQUAD4      1657       1    1688    1695    1696    1689          0.0000
CQUAD4      1658       1    1689    1696    1697    1690          0.0000
CQUAD4      1659       1    1691    1698    1699    1692          0.0000
CQUAD4      1660       1    1692    1699    1700    1693          0.0000
CQUAD4      1661       1    1693    1700    1701    1694          0.0000
CQUAD4      1662       1    1694    1701    1702    1695          0.0000
CQUAD4      1663       1    1695    1702    1703    1696          0.0000
CQUAD4      1664       1    1696    1703    1704    1697          0.0000
CQUAD4      1665       1    1698    1705    1706    1699          0.0000
CQUAD4      1666       1    1699    1706    1707    1700          0.0000
CQUAD4      1667       1    1700    1707    1708    1701          0.0000
CQUAD4      1668       1    1701    1708    1709    1702          0.0000
CQUAD4      1669       1    1702    1709    1710    1703          0.0000
CQUAD4      1670       1    1703    1710    1711    1704          0.0000
CQUAD4      1671       1    1705    1712    1713    1706          0.0000
CQUAD4      1672       1    1706    1713    1714    1707          0.0000
CQUAD4      1673       1    1707    1714    1715    1708          0.0000
CQUAD4      1674       1    1708    1715    1716    1709          0.0000
CQUAD4      1675       1    1709    1716    1717    1710          0.0000
CQUAD4      1676       1    1710    1717    1718    1711          0.0000
CQUAD4      1677       1    1712    1719    1720    1713          0.0000
CQUAD4      1678       1    1713    1720    1721    1714          0.0000
CQUAD4      1679       1    1714    1721    1722    1715          0.0000
CQUAD4      1680       1    1715    1722    1723    1716          0.0000
CQUAD4      1681       1    1716    1723    1724    1717          0.0000
CQUAD4      1682       1    1717    1724    1725    1718          0.0000
CQUAD4      1683       1    1719    1726    1727    1720          0.0000
CQUAD4      1684       1    1720    1727    1728    1721          0.0000
CQUAD4      1685       1    1721    1728    1729    1722          0.0000
CQUAD4      1686       1    1722    1729    1730    1723          0.0000
CQUAD4      1687       1    1723    1730    1731    1724          0.0000
CQUAD4      1688       1    1724    1731    1732    1725          0.0000
CQUAD4      1689       1    1726    1733    1734    1727          0.0000
CQUAD4      1690       1    1727    1734    1735    1728          0.0000
CQUAD4      1691       1    1728    1735    1736    1729          0.0000
CQUAD4      1692       1    1729    1736    1737    1730          0.0000
CQUAD4      1693       1    1730    1737    1738    1731          0.0000
CQUAD4      1694       1    1731    1738    1739    1732          0.0000
CQUAD4      1695       1    1733    1740    1741    1734          0.0000
CQUAD4      1696       1    1734    1741    1742    1735          0.0000
CQUAD4      1697       1    1735    1742    1743    1736          0.0000
CQUAD4      1698       1    1736    1743    1744    1737          0.0000
CQUAD4      1699       1    1737    1744    1745    1738          0.0000
CQUAD4      1700       1    1738    1745    1746    1739          0.0000
CQUAD4      1701       1    1740    1747    1748    1741          0.0000
CQUAD4      1702       1    1741    1748    1749    1742          0.0000
CQUAD4      1703       1    1742    1749    1750    1743          0.0000
CQUAD4      1704       1    1743    1750    1751    1744          0.0000
CQUAD4      1705       1    1744    1751    1752    1745          0.0000
CQUAD4      1706       1    1745    1752    1753    1746          0.0000
CQUAD4      1707       1    1747    1754    1755    1748          0.0000
CQUAD4      1708       1    1748    1755    1756    1749          0.0000
CQUAD4      1709       1    1749    1756    1757    1750          0.0000
CQUAD4      1710       1    1750    1757    1758    1751          0.0000
CQUAD4      1711       1    1751    1758    1759    1752          0.0000
CQUAD4      1712       1    1752    1759    1760    1753          0.0000
CQUAD4      1713       1    1754    1761    1762    1755          0.0000
CQUAD4      1714       1    1755    1762    1763    1756          0.0000
CQUAD4      1715       1    1756    1763    1764    1757          0.0000
CQUAD4      1716       1    1757    1764    1765    1758          0.0000
CQUAD4      1717       1    1758    1765    1766    1759          0.0000
CQUAD4      1718       1    1759    1766    1767    1760          0.0000
CQUAD4      1719       1    1761    1768    1769    1762          0.0000
CQUAD4      1720       1    1762    1769    1770    1763          0.0000
CQUAD4      1721       1    1763    1770    1771    1764          0.0000
CQUAD4      1722       1    1764    1771    1772    1765          0.0000
CQUAD4      1723       1    1765    1772    1773    1766          0.0000
CQUAD4      1724       1    1766    1773    1774    1767          0.0000
CQUAD4      1725       1    1768    1775    1776    1769          0.0000
CQUAD4      1726       1    1769    1776    1777    1770          0.0000
CQUAD4      1727       1    1770    1777    1778    1771          0.0000
CQUAD4      1728       1    1771    1778    1779    1772          0.0000
CQUAD4      1729       1    1772    1779    1780    1773          0.0000
CQUAD4      1730       1    1773    1780    1781    1774          0.0000
CQUAD4      1731       1    1775    1782    1783    1776          0.0000
CQUAD4      1732       1    1776    1783    1784    1777          0.0000
CQUAD4      1733       1    1777    1784    1785    1778          0.0000
CQUAD4      1734       1    1778    1785    1786    1779          0.0000
CQUAD4      1735       1    1779    1786    1787    1780          0.0000
CQUAD4      1736       1    1780    1787    1788    1781          0.0000
CQUAD4      1737       1    1782    1789    1790    1783          0.0000
CQUAD4      1738       1    1783    1790    1791    1784          0.0000
CQUAD4      1739       1    1784    1791    1792    1785          0.0000
CQUAD4      1740       1    1785    1792    1793    1786          0.0000
CQUAD4      1741       1    1786    1793    1794    1787          0.0000
CQUAD4      1742       1    1787    1794    1795    1788          0.0000
CQUAD4      1743       1    1789    1796    1797    1790          0.0000
CQUAD4      1744       1    1790    1797    1798    1791          0.0000
CQUAD4      1745       1    1791    1798    1799    1792          0.0000
CQUAD4      1746       1    1792    1799    1800    1793          0.0000
CQUAD4      1747       1    1793    1800    1801    1794          0.0000
CQUAD4      1748       1    1794    1801    1802    1795          0.0000
CQUAD4      1749       1    1796    1803    1804    1797          0.0000
CQUAD4      1750       1    1797    1804    1805    1798          0.0000
CQUAD4      1751       1    1798    1805    1806    1799          0.0000
CQUAD4      1752       1    1799    1806    1807    1800          0.0000
CQUAD4      1753       1    1800    1807    1808    1801          0.0000
CQUAD4      1754       1    1801    1808    1809    1802          0.0000
CQUAD4      1755       1    1803    1810    1811    1804          0.0000
CQUAD4      1756       1    1804    1811    1812    1805          0.0000
CQUAD4      1757       1    1805    1812    1813    1806          0.0000
CQUAD4      1758       1    1806    1813    1814    1807          0.0000
CQUAD4      1759       1    1807    1814    1815    1808          0.0000
CQUAD4      1760       1    1808    1815    1816    1809          0.0000
CQUAD4      1761       1    1810    1817    1818    1811          0.0000
CQUAD4      1762       1    1811    1818    1819    1812          0.0000
CQUAD4      1763       1    1812    1819    1820    1813          0.0000
CQUAD4      1764       1    1813    1820    1821    1814          0.0000
CQUAD4      1765       1    1814    1821    1822    1815          0.0000
CQUAD4      1766       1    1815    1822    1823    1816          0.0000
CQUAD4      1767       1    1817    1824    1825    1818          0.0000
CQUAD4      1768       1    1818    1825    1826    1819          0.0000
CQUAD4      1769       1    1819    1826    1827    1820          0.0000
CQUAD4      1770       1    1820    1827    1828    1821          0.0000
CQUAD4      1771       1    1821    1828    1829    1822          0.0000
CQUAD4      1772       1    1822    1829    1830    1823          0.0000
CQUAD4      1773       1    1824    1831    1832    1825          0.0000
CQUAD4      1774       1    1825    1832    1833    1826          0.0000
CQUAD4      1775       1    1826    1833    1834    1827          0.0000
CQUAD4      1776       1    1827    1834    1835    1828          0.0000
CQUAD4      1777       1    1828    1835    1836    1829          0.0000
CQUAD4      1778       1    1829    1836    1837    1830          0.0000
CQUAD4      1779       1    1831    1838    1839    1832          0.0000
CQUAD4      1780       1    1832    1839    1840    1833          0.0000
CQUAD4      1781       1    1833    1840    1841    1834          0.0000
CQUAD4      1782       1    1834    1841    1842    1835          0.0000
CQUAD4      1783       1    1835    1842    1843    1836          0.0000
CQUAD4      1784       1    1836    1843    1844    1837          0.0000
CQUAD4      1785       1    1838    1845    1846    1839          0.0000
CQUAD4      1786       1    1839    1846    1847    1840          0.0000
CQUAD4      1787       1    1840    1847    1848    1841          0.0000
CQUAD4      1788       1    1841    1848    1849    1842          0.0000
CQUAD4      1789       1    1842    1849    1850    1843          0.0000
CQUAD4      1790       1    1843    1850    1851    1844          0.0000
CQUAD4      1791       1    1845    1852    1853    1846          0.0000
CQUAD4      1792       1    1846    1853    1854    1847          0.0000
CQUAD4      1793       1    1847    1854    1855    1848          0.0000
CQUAD4      1794       1    1848    1855    1856    1849          0.0000
CQUAD4      1795       1    1849    1856    1857    1850          0.0000
CQUAD4      1796       1    1850    1857    1858    1851          0.0000
CQUAD4      1797       1    1852    1859    1860    1853          0.0000
CQUAD4      1798       1    1853    1860    1861    1854          0.0000
CQUAD4      1799       1    1854    1861    1862    1855          0.0000
CQUAD4      1800       1    1855    1862    1863    1856          0.0000
CQUAD4      1801       1    1856    1863    1864    1857          0.0000
CQUAD4      1802       1    1857    1864    1865    1858          0.0000
CQUAD4      1803       1    1859    1866    1867    1860          0.0000
CQUAD4      1804       1    1860    1867    1868    1861          0.0000
CQUAD4      1805       1    1861    1868    1869    1862          0.0000
CQUAD4      1806       1    1862    1869    1870    1863          0.0000
CQUAD4      1807       1    1863    1870    1871    1864          0.0000
CQUAD4      1808       1    1864    1871    1872    1865          0.0000
CQUAD4      1809       1    1866    1873    1874    1867          0.0000
CQUAD4      1810       1    1867    1874    1875    1868          0.0000
CQUAD4      1811       1    1868    1875    1876    1869          0.0000
CQUAD4      1812       1    1869    1876    1877    1870          0.0000
CQUAD4      1813       1    1870    1877    1878    1871          0.0000
CQUAD4      1814       1    1871    1878    1879    1872          0.0000
CQUAD4      1815       1    1873    1880    1881    1874          0.0000
CQUAD4      1816       1    1874    1881    1882    1875          0.0000
CQUAD4      1817       1    1875    1882    1883    1876          0.0000
CQUAD4      1818       1    1876    1883    1884    1877          0.0000
CQUAD4      1819       1    1877    1884    1885    1878          0.0000
CQUAD4      1820       1    1878    1885    1886    1879          0.0000
CQUAD4      1821       1    1880    1887    1888    1881          0.0000
CQUAD4      1822       1    1881    1888    1889    1882          0.0000
CQUAD4      1823       1    1882    1889    1890    1883          0.0000
CQUAD4      1824       1    1883    1890    1891    1884          0.0000
CQUAD4      1825       1    1884    1891    1892    1885          0.0000
CQUAD4      1826       1    1885    1892    1893    1886          0.0000
CQUAD4      1827       1    1887    1894    1895    1888          0.0000
CQUAD4      1828       1    1888    1895    1896    1889          0.0000
CQUAD4      1829       1    1889    1896    1897    1890          0.0000
CQUAD4      1830       1    1890    1897    1898    1891          0.0000
CQUAD4      1831       1    1891    1898    1899    1892          0.0000
CQUAD4      1832       1    1892    1899    1900    1893          0.0000
CQUAD4      1833       1    1894    1901    1902    1895          0.0000
CQUAD4      1834       1    1895    1902    1903    1896          0.0000
CQUAD4      1835       1    1896    1903    1904    1897          0.0000
CQUAD4      1836       1    1897    1904    1905    1898          0.0000
CQUAD4      1837       1    1898    1905    1906    1899          0.0000
CQUAD4      1838       1    1899    1906    1907    1900          0.0000
CQUAD4      1839       1    1901    1908    1909    1902          0.0000
CQUAD4      1840       1    1902    1909    1910    1903          0.0000
CQUAD4      1841       1    1903    1910    1911    1904          0.0000
CQUAD4      1842       1    1904    1911    1912    1905          0.0000
CQUAD4      1843       1    1905    1912    1913    1906          0.0000
CQUAD4      1844       1    1906    1913    1914    1907          0.0000
CQUAD4      1845       1    1908    1915    1916    1909          0.0000
CQUAD4      1846       1    1909    1916    1917    1910          0.0000
CQUAD4      1847       1    1910    1917    1918    1911          0.0000
CQUAD4      1848       1    1911    1918    1919    1912          0.0000
CQUAD4      1849       1    1912    1919    1920    1913          0.0000
CQUAD4      1850       1    1913    1920    1921    1914          0.0000
CQUAD4      1851       1    1915    1922    1923    1916          0.0000
CQUAD4      1852       1    1916    1923    1924    1917          0.0000
CQUAD4      1853       1    1917    1924    1925    1918          0.0000
CQUAD4      1854       1    1918    1925    1926    1919          0.0000
CQUAD4      1855       1    1919    1926    1927    1920          0.0000
CQUAD4      1856       1    1920    1927    1928    1921          0.0000
CQUAD4      1857       1    1922    1929    1930    1923          0.0000
CQUAD4      1858       1    1923    1930    1931    1924          0.0000
CQUAD4      1859       1    1924    1931    1932    1925          0.0000
CQUAD4      1860       1    1925    1932    1933    1926          0.0000
CQUAD4      1861       1    1926    1933    1934    1927          0.0000
CQUAD4      1862       1    1927    1934    1935    1928          0.0000
CQUAD4      1863       1    1929    1936    1937    1930          0.0000
CQUAD4      1864       1    1930    1937    1938    1931          0.0000
CQUAD4      1865       1    1931    1938    1939    1932          0.0000
CQUAD4      1866       1    1932    1939    1940    1933          0.0000
CQUAD4      1867       1    1933    1940    1941    1934          0.0000
CQUAD4      1868       1    1934    1941    1942    1935          0.0000
CQUAD4      1869       1    1936    1943    1944    1937          0.0000
CQUAD4      1870       1    1937    1944    1945    1938          0.0000
CQUAD4      1871       1    1938    1945    1946    1939          0.0000
CQUAD4      1872       1    1939    1946    1947    1940          0.0000
CQUAD4      1873       1    1940    1947    1948    1941          0.0000
CQUAD4      1874       1    1941    1948    1949    1942          0.0000
CQUAD4      1875       1    1943    1950    1951    1944          0.0000
CQUAD4      1876       1    1944    1951    1952    1945          0.0000
CQUAD4      1877       1    1945    1952    1953    1946          0.0000
CQUAD4      1878       1    1946    1953    1954    1947          0.0000
CQUAD4      1879       1    1947    1954    1955    1948          0.0000
CQUAD4      1880       1    1948    1955    1956    1949          0.0000
CQUAD4      1881       1    1950    1957    1958    1951          0.0000
CQUAD4      1882       1    1951    1958    1959    1952          0.0000
CQUAD4      1883       1    1952    1959    1960    1953          0.0000
CQUAD4      1884       1    1953    1960    1961    1954          0.0000
CQUAD4      1885       1    1954    1961    1962    1955          0.0000
CQUAD4      1886       1    1955    1962    1963    1956          0.0000
CQUAD4      1887       1    1957    1964    1965    1958          0.0000
CQUAD4      1888       1    1958    1965    1966    1959          0.0000
CQUAD4      1889       1    1959    1966    1967    1960          0.0000
CQUAD4      1890       1    1960    1967    1968    1961          0.0000
CQUAD4      1891       1    1961    1968    1969    1962          0.0000
CQUAD4      1892       1    1962    1969    1970    1963          0.0000
CQUAD4      1893       1    1964    1971    1972    1965          0.0000
CQUAD4      1894       1    1965    1972    1973    1966          0.0000
CQUAD4      1895       1    1966    1973    1974    1967          0.0000
CQUAD4      1896       1    1967    1974    1975    1968          0.0000
CQUAD4      1897       1    1968    1975    1976    1969          0.0000
CQUAD4      1898       1    1969    1976    1977    1970          0.0000
CQUAD4      1899       1    1971    1978    1979    1972          0.0000
CQUAD4      1900       1    1972    1979    1980    1973          0.0000
CQUAD4      1901       1    1973    1980    1981    1974          0.0000
CQUAD4      1902       1    1974    1981    1982    1975          0.0000
CQUAD4      1903       1    1975    1982    1983    1976          0.0000
CQUAD4      1904       1    1976    1983    1984    1977          0.0000
CQUAD4      1905       1    1978    1985    1986    1979          0.0000
CQUAD4      1906       1    1979    1986    1987    1980          0.0000
CQUAD4      1907       1    1980    1987    1988    1981          0.0000
CQUAD4      1908       1    1981    1988    1989    1982          0.0000
CQUAD4      1909       1    1982    1989    1990    1983          0.0000
CQUAD4      1910       1    1983    1990    1991    1984          0.0000
CQUAD4      1911       1    1985    1992    1993    1986          0.0000
CQUAD4      1912       1    1986    1993    1994    1987          0.0000
CQUAD4      1913       1    1987    1994    1995    1988          0.0000
CQUAD4      1914       1    1988    1995    1996    1989          0.0000
CQUAD4      1915       1    1989    1996    1997    1990          0.0000
CQUAD4      1916       1    1990    1997    1998    1991          0.0000
CQUAD4      1917       1    1992    1999    2000    1993          0.0000
CQUAD4      1918       1    1993    2000    2001    1994          0.0000
CQUAD4      1919       1    1994    2001    2002    1995          0.0000
CQUAD4      1920       1    1995    2002    2003    1996          0.0000
CQUAD4      1921       1    1996    2003    2004    1997          0.0000
CQUAD4      1922       1    1997    2004    2005    1998          0.0000
CQUAD4      1923       1    1999    2006    2007    2000          0.0000
CQUAD4      1924       1    2000    2007    2008    2001          0.0000
CQUAD4      1925       1    2001    2008    2009    2002          0.0000
CQUAD4      1926       1    2002    2009    2010    2003          0.0000
CQUAD4      1927       1    2003    2010    2011    2004          0.0000
CQUAD4      1928       1    2004    2011    2012    2005          0.0000
CQUAD4      1929       1    2006    2013    2014    2007          0.0000
CQUAD4      1930       1    2007    2014    2015    2008          0.0000
CQUAD4      1931       1    2008    2015    2016    2009          0.0000
CQUAD4      1932       1    2009    2016    2017    2010          0.0000
CQUAD4      1933       1    2010    2017    2018    2011          0.0000
CQUAD4      1934       1    2011    2018    2019    2012          0.0000
CQUAD4      1935       1    2013    2020    2021    2014          0.0000
CQUAD4      1936       1    2014    2021    2022    2015          0.0000
CQUAD4      1937       1    2015    2022    2023    2016          0.0000
CQUAD4      1938       1    2016    2023    2024    2017          0.0000
CQUAD4      1939       1    2017    2024    2025    2018          0.0000
CQUAD4      1940       1    2018    2025    2026    2019          0.0000
CQUAD4      1941       1    2020    2027    2028    2021          0.0000
CQUAD4      1942       1    2021    2028    2029    2022          0.0000
CQUAD4      1943       1    2022    2029    2030    2023          0.0000
CQUAD4      1944       1    2023    2030    2031    2024          0.0000
CQUAD4      1945       1    2024    2031    2032    2025          0.0000
CQUAD4      1946       1    2025    2032    2033    2026          0.0000
CQUAD4      1947       1    2027    2034    2035    2028          0.0000
CQUAD4      1948       1    2028    2035    2036    2029          0.0000
CQUAD4      1949       1    2029    2036    2037    2030          0.0000
CQUAD4      1950       1    2030    2037    2038    2031          0.0000
CQUAD4      1951       1    2031    2038    2039    2032          0.0000
CQUAD4      1952       1    2032    2039    2040    2033          0.0000
CQUAD4      1953       1    2034    2041    2042    2035          0.0000
CQUAD4      1954       1    2035    2042    2043    2036          0.0000
CQUAD4      1955       1    2036    2043    2044    2037          0.0000
CQUAD4      1956       1    2037    2044    2045    2038          0.0000
CQUAD4      1957       1    2038    2045    2046    2039          0.0000
CQUAD4      1958       1    2039    2046    2047    2040          0.0000
CQUAD4      1959       1    2041    2048    2049    2042          0.0000
CQUAD4      1960       1    2042    2049    2050    2043          0.0000
CQUAD4      1961       1    2043    2050    2051    2044          0.0000
CQUAD4      1962       1    2044    2051    2052    2045          0.0000
CQUAD4      1963       1    2045    2052    2053    2046          0.0000
CQUAD4      1964       1    2046    2053    2054    2047          0.0000
CQUAD4      1965       1    2048    2055    2056    2049          0.0000
CQUAD4      1966       1    2049    2056    2057    2050          0.0000
CQUAD4      1967       1    2050    2057    2058    2051          0.0000
CQUAD4      1968       1    2051    2058    2059    2052          0.0000
CQUAD4      1969       1    2052    2059    2060    2053          0.0000
CQUAD4      1970       1    2053    2060    2061    2054          0.0000
CQUAD4      1971       1    2055    2062    2063    2056          0.0000
CQUAD4      1972       1    2056    2063    2064    2057          0.0000
CQUAD4      1973       1    2057    2064    2065    2058          0.0000
CQUAD4      1974       1    2058    2065    2066    2059          0.0000
CQUAD4      1975       1    2059    2066    2067    2060          0.0000
CQUAD4      1976       1    2060    2067    2068    2061          0.0000
CQUAD4      1977       1    2062    2069    2070    2063          0.0000
CQUAD4      1978       1    2063    2070    2071    2064          0.0000
CQUAD4      1979       1    2064    2071    2072    2065          0.0000
CQUAD4      1980       1    2065    2072    2073    2066          0.0000
CQUAD4      1981       1    2066    2073    2074    2067          0.0000
CQUAD4      1982       1    2067    2074    2075    2068          0.0000
CQUAD4      1983       1    2069    2076    2077    2070          0.0000
CQUAD4      1984       1    2070    2077    2078    2071          0.0000
CQUAD4      1985       1    2071    2078    2079    2072          0.0000
CQUAD4      1986       1    2072    2079    2080    2073          0.0000
CQUAD4      1987       1    2073    2080    2081    2074          0.0000
CQUAD4      1988       1    2074    2081    2082    2075          0.0000
CQUAD4      1989       1    2076    2083    2084    2077          0.0000
CQUAD4      1990       1    2077    2084    2085    2078          0.0000
CQUAD4      1991       1    2078    2085    2086    2079          0.0000
CQUAD4      1992       1    2079    2086    2087    2080          0.0000
CQUAD4      1993       1    2080    2087    2088    2081          0.0000
CQUAD4      1994       1    2081    2088    2089    2082          0.0000
CQUAD4      1995       1    2083    2090    2091    2084          0.0000
CQUAD4      1996       1    2084    2091    2092    2085          0.0000
CQUAD4      1997       1    2085    2092    2093    2086          0.0000
CQUAD4      1998       1    2086    2093    2094    2087          0.0000
CQUAD4      1999       1    2087    2094    2095    2088          0.0000
CQUAD4      2000       1    2088    2095    2096    2089          0.0000
CQUAD4      2001       1    2090    2097    2098    2091          0.0000
CQUAD4      2002       1    2091    2098    2099    2092          0.0000
CQUAD4      2003       1    2092    2099    2100    2093          0.0000
CQUAD4      2004       1    2093    2100    2101    2094          0.0000
CQUAD4      2005       1    2094    2101    2102    2095          0.0000
CQUAD4      2006       1    2095    2102    2103    2096          0.0000
CQUAD4      2007       1    2097    2104    2105    2098          0.0000
CQUAD4      2008       1    2098    2105    2106    2099          0.0000
CQUAD4      2009       1    2099    2106    2107    2100          0.0000
CQUAD4      2010       1    2100    2107    2108    2101          0.0000
CQUAD4      2011       1    2101    2108    2109    2102          0.0000
CQUAD4      2012       1    2102    2109    2110    2103          0.0000
CQUAD4      2013       1    2104    2111    2112    2105          0.0000
CQUAD4      2014       1    2105    2112    2113    2106          0.0000
CQUAD4      2015       1    2106    2113    2114    2107          0.0000
CQUAD4      2016       1    2107    2114    2115    2108          0.0000
CQUAD4      2017       1    2108    2115    2116    2109          0.0000
CQUAD4      2018       1    2109    2116    2117    2110          0.0000
CQUAD4      2019       1    2111    2118    2119    2112          0.0000
CQUAD4      2020       1    2112    2119    2120    2113          0.0000
CQUAD4      2021       1    2113    2120    2121    2114          0.0000
CQUAD4      2022       1    2114    2121    2122    2115          0.0000
CQUAD4      2023       1    2115    2122    2123    2116          0.0000
CQUAD4      2024       1    2116    2123    2124    2117          0.0000
CQUAD4      2025       1    2118    2125    2126    2119          0.0000
CQUAD4      2026       1    2119    2126    2127    2120          0.0000
CQUAD4      2027       1    2120    2127    2128    2121          0.0000
CQUAD4      2028       1    2121    2128    2129    2122          0.0000
CQUAD4      2029       1    2122    2129    2130    2123          0.0000
CQUAD4      2030       1    2123    2130    2131    2124          0.0000
CQUAD4      2031       1    2125    2132    2133    2126          0.0000
CQUAD4      2032       1    2126    2133    2134    2127          0.0000
CQUAD4      2033       1    2127    2134    2135    2128          0.0000
CQUAD4      2034       1    2128    2135    2136    2129          0.0000
CQUAD4      2035       1    2129    2136    2137    2130          0.0000
CQUAD4      2036       1    2130    2137    2138    2131          0.0000
CQUAD4      2037       1    2132    2139    2140    2133          0.0000
CQUAD4      2038       1    2133    2140    2141    2134          0.0000
CQUAD4      2039       1    2134    2141    2142    2135          0.0000
CQUAD4      2040       1    2135    2142    2143    2136          0.0000
CQUAD4      2041       1    2136    2143    2144    2137          0.0000
CQUAD4      2042       1    2137    2144    2145    2138          0.0000
CQUAD4      2043       1    2139    2146    2147    2140          0.0000
CQUAD4      2044       1    2140    2147    2148    2141          0.0000
CQUAD4      2045       1    2141    2148    2149    2142          0.0000
CQUAD4      2046       1    2142    2149    2150    2143          0.0000
CQUAD4      2047       1    2143    2150    2151    2144          0.0000
CQUAD4      2048       1    2144    2151    2152    2145          0.0000
CQUAD4      2049       1    2146    2153    2154    2147          0.0000
CQUAD4      2050       1    2147    2154    2155    2148          0.0000
CQUAD4      2051       1    2148    2155    2156    2149          0.0000
CQUAD4      2052       1    2149    2156    2157    2150          0.0000
CQUAD4      2053       1    2150    2157    2158    2151          0.0000
CQUAD4      2054       1    2151    2158    2159    2152          0.0000
CQUAD4      2055       1    2153    2160    2161    2154          0.0000
CQUAD4      2056       1    2154    2161    2162    2155          0.0000
CQUAD4      2057       1    2155    2162    2163    2156          0.0000
CQUAD4      2058       1    2156    2163    2164    2157          0.0000
CQUAD4      2059       1    2157    2164    2165    2158          0.0000
CQUAD4      2060       1    2158    2165    2166    2159          0.0000
CQUAD4      2061       1    2160    2167    2168    2161          0.0000
CQUAD4      2062       1    2161    2168    2169    2162          0.0000
CQUAD4      2063       1    2162    2169    2170    2163          0.0000
CQUAD4      2064       1    2163    2170    2171    2164          0.0000
CQUAD4      2065       1    2164    2171    2172    2165          0.0000
CQUAD4      2066       1    2165    2172    2173    2166          0.0000
CQUAD4      2067       1    2167    2174    2175    2168          0.0000
CQUAD4      2068       1    2168    2175    2176    2169          0.0000
CQUAD4      2069       1    2169    2176    2177    2170          0.0000
CQUAD4      2070       1    2170    2177    2178    2171          0.0000
CQUAD4      2071       1    2171    2178    2179    2172          0.0000
CQUAD4      2072       1    2172    2179    2180    2173          0.0000
CQUAD4      2073       1    2174    2181    2182    2175          0.0000
CQUAD4      2074       1    2175    2182    2183    2176          0.0000
CQUAD4      2075       1    2176    2183    2184    2177          0.0000
CQUAD4      2076       1    2177    2184    2185    2178          0.0000
CQUAD4      2077       1    2178    2185    2186    2179          0.0000
CQUAD4      2078       1    2179    2186    2187    2180          0.0000
CQUAD4      2079       1    2181    2188    2189    2182          0.0000
CQUAD4      2080       1    2182    2189    2190    2183          0.0000
CQUAD4      2081       1    2183    2190    2191    2184          0.0000
CQUAD4      2082       1    2184    2191    2192    2185          0.0000
CQUAD4      2083       1    2185    2192    2193    2186          0.0000
CQUAD4      2084       1    2186    2193    2194    2187          0.0000
CQUAD4      2085       1    2188    2195    2196    2189          0.0000
CQUAD4      2086       1    2189    2196    2197    2190          0.0000
CQUAD4      2087       1    2190    2197    2198    2191          0.0000
CQUAD4      2088       1    2191    2198    2199    2192          0.0000
CQUAD4      2089       1    2192    2199    2200    2193          0.0000
CQUAD4      2090       1    2193    2200    2201    2194          0.0000
CQUAD4      2091       1    2195    2202    2203    2196          0.0000
CQUAD4      2092       1    2196    2203    2204    2197          0.0000
CQUAD4      2093       1    2197    2204    2205    2198          0.0000
CQUAD4      2094       1    2198    2205    2206    2199          0.0000
CQUAD4      2095       1    2199    2206    2207    2200          0.0000
CQUAD4      2096       1    2200    2207    2208    2201          0.0000
CQUAD4      2097       1    2202    2209    2210    2203          0.0000
CQUAD4      2098       1    2203    2210    2211    2204          0.0000
CQUAD4      2099       1    2204    2211    2212    2205          0.0000
CQUAD4      2100       1    2205    2212    2213    2206          0.0000
CQUAD4      2101       1    2206    2213    2214    2207          0.0000
CQUAD4      2102       1    2207    2214    2215    2208          0.0000
CQUAD4      2103       1    2209    2216    2217    2210          0.0000
CQUAD4      2104       1    2210    2217    2218    2211          0.0000
CQUAD4      2105       1    2211    2218    2219    2212          0.0000
CQUAD4      2106       1    2212    2219    2220    2213          0.0000
CQUAD4      2107       1    2213    2220    2221    2214          0.0000
CQUAD4      2108       1    2214    2221    2222    2215          0.0000
CQUAD4      2109       1    2216    2223    2224    2217          0.0000
CQUAD4      2110       1    2217    2224    2225    2218          0.0000
CQUAD4      2111       1    2218    2225    2226    2219          0.0000
CQUAD4      2112       1    2219    2226    2227    2220          0.0000
CQUAD4      2113       1    2220    2227    2228    2221          0.0000
CQUAD4      2114       1    2221    2228    2229    2222          0.0000
CQUAD4      2115       1    2223    2230    2231    2224          0.0000
CQUAD4      2116       1    2224    2231    2232    2225          0.0000
CQUAD4      2117       1    2225    2232    2233    2226          0.0000
CQUAD4      2118       1    2226    2233    2234    2227          0.0000
CQUAD4      2119       1    2227    2234    2235    2228          0.0000
CQUAD4      2120       1    2228    2235    2236    2229          0.0000
CQUAD4      2121       1    2230    2237    2238    2231          0.0000
CQUAD4      2122       1    2231    2238    2239    2232          0.0000
CQUAD4      2123       1    2232    2239    2240    2233          0.0000
CQUAD4      2124       1    2233    2240    2241    2234          0.0000
CQUAD4      2125       1    2234    2241    2242    2235          0.0000
CQUAD4      2126       1    2235    2242    2243    2236          0.0000
CQUAD4      2127       1    2237    2244    2245    2238          0.0000
CQUAD4      2128       1    2238    2245    2246    2239          0.0000
CQUAD4      2129       1    2239    2246    2247    2240          0.0000
CQUAD4      2130       1    2240    2247    2248    2241          0.0000
CQUAD4      2131       1    2241    2248    2249    2242          0.0000
CQUAD4      2132       1    2242    2249    2250    2243          0.0000
CQUAD4      2133       1    2244    2251    2252    2245          0.0000
CQUAD4      2134       1    2245    2252    2253    2246          0.0000
CQUAD4      2135       1    2246    2253    2254    2247          0.0000
CQUAD4      2136       1    2247    2254    2255    2248          0.0000
CQUAD4      2137       1    2248    2255    2256    2249          0.0000
CQUAD4      2138       1    2249    2256    2257    2250          0.0000
CQUAD4      2139       1    2251    2258    2259    2252          0.0000
CQUAD4      2140       1    2252    2259    2260    2253          0.0000
CQUAD4      2141       1    2253    2260    2261    2254          0.0000
CQUAD4      2142       1    2254    2261    2262    2255          0.0000
CQUAD4      2143       1    2255    2262    2263    2256          0.0000
CQUAD4      2144       1    2256    2263    2264    2257          0.0000
CQUAD4      2145       1    2258    2265    2266    2259          0.0000
CQUAD4      2146       1    2259    2266    2267    2260          0.0000
CQUAD4      2147       1    2260    2267    2268    2261          0.0000
CQUAD4      2148       1    2261    2268    2269    2262          0.0000
CQUAD4      2149       1    2262    2269    2270    2263          0.0000
CQUAD4      2150       1    2263    2270    2271    2264          0.0000
CQUAD4      2151       1    2265    2272    2273    2266          0.0000
CQUAD4      2152       1    2266    2273    2274    2267          0.0000
CQUAD4      2153       1    2267    2274    2275    2268          0.0000
CQUAD4      2154       1    2268    2275    2276    2269          0.0000
CQUAD4      2155       1    2269    2276    2277    2270          0.0000
CQUAD4      2156       1    2270    2277    2278    2271          0.0000
CQUAD4      2157       1    2272    2279    2280    2273          0.0000
CQUAD4      2158       1    2273    2280    2281    2274          0.0000
CQUAD4      2159       1    2274    2281    2282    2275          0.0000
CQUAD4      2160       1    2275    2282    2283    2276          0.0000
CQUAD4      2161       1    2276    2283    2284    2277          0.0000
CQUAD4      2162       1    2277    2284    2285    2278          0.0000
CQUAD4      2163       1    2279    2286    2287    2280          0.0000
CQUAD4      2164       1    2280    2287    2288    2281          0.0000
CQUAD4      2165       1    2281    2288    2289    2282          0.0000
CQUAD4      2166       1    2282    2289    2290    2283          0.0000
CQUAD4      2167       1    2283    2290    2291    2284          0.0000
CQUAD4      2168       1    2284    2291    2292    2285          0.0000
CQUAD4      2169       1    2286    2293    2294    2287          0.0000
CQUAD4      2170       1    2287    2294    2295    2288          0.0000
CQUAD4      2171       1    2288    2295    2296    2289          0.0000
CQUAD4      2172       1    2289    2296    2297    2290          0.0000
CQUAD4      2173       1    2290    2297    2298    2291          0.0000
CQUAD4      2174       1    2291    2298    2299    2292          0.0000
CQUAD4      2175       1    2293    2300    2301    2294          0.0000
CQUAD4      2176       1    2294    2301    2302    2295          0.0000
CQUAD4      2177       1    2295    2302    2303    2296          0.0000
CQUAD4      2178       1    2296    2303    2304    2297          0.0000
CQUAD4      2179       1    2297    2304    2305    2298          0.0000
CQUAD4      2180       1    2298    2305    2306    2299          0.0000
CQUAD4      2181       1    2300    2307    2308    2301          0.0000
CQUAD4      2182       1    2301    2308    2309    2302          0.0000
CQUAD4      2183       1    2302    2309    2310    2303          0.0000
CQUAD4      2184       1    2303    2310    2311    2304          0.0000
CQUAD4      2185       1    2304    2311    2312    2305          0.0000
CQUAD4      2186       1    2305    2312    2313    2306          0.0000
CQUAD4      2187       1    2307    2314    2315    2308          0.0000
CQUAD4      2188       1    2308    2315    2316    2309          0.0000
CQUAD4      2189       1    2309    2316    2317    2310          0.0000
CQUAD4      2190       1    2310    2317    2318    2311          0.0000
CQUAD4      2191       1    2311    2318    2319    2312          0.0000
CQUAD4      2192       1    2312    2319    2320    2313          0.0000
CQUAD4      2193       1    2314    2321    2322    2315          0.0000
CQUAD4      2194       1    2315    2322    2323    2316          0.0000
CQUAD4      2195       1    2316    2323    2324    2317          0.0000
CQUAD4      2196       1    2317    2324    2325    2318          0.0000
CQUAD4      2197       1    2318    2325    2326    2319          0.0000
CQUAD4      2198       1    2319    2326    2327    2320          0.0000
CQUAD4      2199       1    2321    2328    2329    2322          0.0000
CQUAD4      2200       1    2322    2329    2330    2323          0.0000
CQUAD4      2201       1    2323    2330    2331    2324          0.0000
CQUAD4      2202       1    2324    2331    2332    2325          0.0000
CQUAD4      2203       1    2325    2332    2333    2326          0.0000
CQUAD4      2204       1    2326    2333    2334    2327          0.0000
CQUAD4      2205       1    2328    2335    2336    2329          0.0000
CQUAD4      2206       1    2329    2336    2337    2330          0.0000
CQUAD4      2207       1    2330    2337    2338    2331          0.0000
CQUAD4      2208       1    2331    2338    2339    2332          0.0000
CQUAD4      2209       1    2332    2339    2340    2333          0.0000
CQUAD4      2210       1    2333    2340    2341    2334          0.0000
CQUAD4      2211       1    2335    2342    2343    2336          0.0000
CQUAD4      2212       1    2336    2343    2344    2337          0.0000
CQUAD4      2213       1    2337    2344    2345    2338          0.0000
CQUAD4      2214       1    2338    2345    2346    2339          0.0000
CQUAD4      2215       1    2339    2346    2347    2340          0.0000
CQUAD4      2216       1    2340    2347    2348    2341          0.0000
CQUAD4      2217       1    2342    2349    2350    2343          0.0000
CQUAD4      2218       1    2343    2350    2351    2344          0.0000
CQUAD4      2219       1    2344    2351    2352    2345          0.0000
CQUAD4      2220       1    2345    2352    2353    2346          0.0000
CQUAD4      2221       1    2346    2353    2354    2347          0.0000
CQUAD4      2222       1    2347    2354    2355    2348          0.0000
CQUAD4      2223       1    2349    2356    2357    2350          0.0000
CQUAD4      2224       1    2350    2357    2358    2351          0.0000
CQUAD4      2225       1    2351    2358    2359    2352          0.0000
CQUAD4      2226       1    2352    2359    2360    2353          0.0000
CQUAD4      2227       1    2353    2360    2361    2354          0.0000
CQUAD4      2228       1    2354    2361    2362    2355          0.0000
CQUAD4      2229       1    2356    2363    2364    2357          0.0000
CQUAD4      2230       1    2357    2364    2365    2358          0.0000
CQUAD4      2231       1    2358    2365    2366    2359          0.0000
CQUAD4      2232       1    2359    2366    2367    2360          0.0000
CQUAD4      2233       1    2360    2367    2368    2361          0.0000
CQUAD4      2234       1    2361    2368    2369    2362          0.0000
CQUAD4      2235       1    2363    2370    2371    2364          0.0000
CQUAD4      2236       1    2364    2371    2372    2365          0.0000
CQUAD4      2237       1    2365    2372    2373    2366          0.0000
CQUAD4      2238       1    2366    2373    2374    2367          0.0000
CQUAD4      2239       1    2367    2374    2375    2368          0.0000
CQUAD4      2240       1    2368    2375    2376    2369          0.0000
CQUAD4      2241       1    2370    2377    2378    2371          0.0000
CQUAD4      2242       1    2371    2378    2379    2372          0.0000
CQUAD4      2243       1    2372    2379    2380    2373          0.0000
CQUAD4      2244       1    2373    2380    2381    2374          0.0000
CQUAD4      2245       1    2374    2381    2382    2375          0.0000
CQUAD4      2246       1    2375    2382    2383    2376          0.0000
CQUAD4      2247       1    2377    2384    2385    2378          0.0000
CQUAD4      2248       1    2378    2385    2386    2379          0.0000
CQUAD4      2249       1    2379    2386    2387    2380          0.0000
CQUAD4      2250       1    2380    2387    2388    2381          0.0000
CQUAD4      2251       1    2381    2388    2389    2382          0.0000
CQUAD4      2252       1    2382    2389    2390    2383          0.0000
CQUAD4      2253       1    2384    2391    2392    2385          0.0000
CQUAD4      2254       1    2385    2392    2393    2386          0.0000
CQUAD4      2255       1    2386    2393    2394    2387          0.0000
CQUAD4      2256       1    2387    2394    2395    2388          0.0000
CQUAD4      2257       1    2388    2395    2396    2389          0.0000
CQUAD4      2258       1    2389    2396    2397    2390          0.0000
CQUAD4      2259       1    2391    2398    2399    2392          0.0000
CQUAD4      2260       1    2392    2399    2400    2393          0.0000
CQUAD4      2261       1    2393    2400    2401    2394          0.0000
CQUAD4      2262       1    2394    2401    2402    2395          0.0000
CQUAD4      2263       1    2395    2402    2403    2396          0.0000
CQUAD4      2264       1    2396    2403    2404    2397          0.0000
CQUAD4      2265       1    2398    2405    2406    2399          0.0000
CQUAD4      2266       1    2399    2406    2407    2400          0.0000
CQUAD4      2267       1    2400    2407    2408    2401          0.0000
CQUAD4      2268       1    2401    2408    2409    2402          0.0000
CQUAD4      2269       1    2402    2409    2410    2403          0.0000
CQUAD4      2270       1    2403    2410    2411    2404          0.0000
CQUAD4      2271       1    2405    2412    2413    2406          0.0000
CQUAD4      2272       1    2406    2413    2414    2407          0.0000
CQUAD4      2273       1    2407    2414    2415    2408          0.0000
CQUAD4      2274       1    2408    2415    2416    2409          0.0000
CQUAD4      2275       1    2409    2416    2417    2410          0.0000
CQUAD4      2276       1    2410    2417    2418    2411          0.0000
CQUAD4      2277       1    2412    2419    2420    2413          0.0000
CQUAD4      2278       1    2413    2420    2421    2414          0.0000
CQUAD4      2279       1    2414    2421    2422    2415          0.0000
CQUAD4      2280       1    2415    2422    2423    2416          0.0000
CQUAD4      2281       1    2416    2423    2424    2417          0.0000
CQUAD4      2282       1    2417    2424    2425    2418          0.0000
CQUAD4      2283       1    2419    2426    2427    2420          0.0000
CQUAD4      2284       1    2420    2427    2428    2421          0.0000
CQUAD4      2285       1    2421    2428    2429    2422          0.0000
CQUAD4      2286       1    2422    2429    2430    2423          0.0000
CQUAD4      2287       1    2423    2430    2431    2424          0.0000
CQUAD4      2288       1    2424    2431    2432    2425          0.0000
CQUAD4      2289       1    2426    2433    2434    2427          0.0000
CQUAD4      2290       1    2427    2434    2435    2428          0.0000
CQUAD4      2291       1    2428    2435    2436    2429          0.0000
CQUAD4      2292       1    2429    2436    2437    2430          0.0000
CQUAD4      2293       1    2430    2437    2438    2431          0.0000
CQUAD4      2294       1    2431    2438    2439    2432          0.0000
CQUAD4      2295       1    2433    2440    2441    2434          0.0000
CQUAD4      2296       1    2434    2441    2442    2435          0.0000
CQUAD4      2297       1    2435    2442    2443    2436          0.0000
CQUAD4      2298       1    2436    2443    2444    2437          0.0000
CQUAD4      2299       1    2437    2444    2445    2438          0.0000
CQUAD4      2300       1    2438    2445    2446    2439          0.0000
CQUAD4      2301       1    2440    2447    2448    2441          0.0000
CQUAD4      2302       1    2441    2448    2449    2442          0.0000
CQUAD4      2303       1    2442    2449    2450    2443          0.0000
CQUAD4      2304       1    2443    2450    2451    2444          0.0000
CQUAD4      2305       1    2444    2451    2452    2445          0.0000
CQUAD4      2306       1    2445    2452    2453    2446          0.0000
CQUAD4      2307       1    2447    2454    2455    2448          0.0000
CQUAD4      2308       1    2448    2455    2456    2449          0.0000
CQUAD4      2309       1    2449    2456    2457    2450          0.0000
CQUAD4      2310       1    2450    2457    2458    2451          0.0000
CQUAD4      2311       1    2451    2458    2459    2452          0.0000
CQUAD4      2312       1    2452    2459    2460    2453          0.0000
CQUAD4      2313       1    2454    2461    2462    2455          0.0000
CQUAD4      2314       1    2455    2462    2463    2456          0.0000
CQUAD4      2315       1    2456    2463    2464    2457          0.0000
CQUAD4      2316       1    2457    2464    2465    2458          0.0000
CQUAD4      2317       1    2458    2465    2466    2459          0.0000
CQUAD4      2318       1    2459    2466    2467    2460          0.0000
CQUAD4      2319       1    2461    2468    2469    2462          0.0000
CQUAD4      2320       1    2462    2469    2470    2463          0.0000
CQUAD4      2321       1    2463    2470    2471    2464          0.0000
CQUAD4      2322       1    2464    2471    2472    2465          0.0000
CQUAD4      2323       1    2465    2472    2473    2466          0.0000
CQUAD4      2324       1    2466    2473    2474    2467          0.0000
CQUAD4      2325       1    2468    2475    2476    2469          0.0000
CQUAD4      2326       1    2469    2476    2477    2470          0.0000
CQUAD4      2327       1    2470    2477    2478    2471          0.0000
CQUAD4      2328       1    2471    2478    2479    2472          0.0000
CQUAD4      2329       1    2472    2479    2480    2473          0.0000
CQUAD4      2330       1    2473    2480    2481    2474          0.0000
CQUAD4      2331       1    2475    2482    2483    2476          0.0000
CQUAD4      2332       1    2476    2483    2484    2477          0.0000
CQUAD4      2333       1    2477    2484    2485    2478          0.0000
CQUAD4      2334       1    2478    2485    2486    2479          0.0000
CQUAD4      2335       1    2479    2486    2487    2480          0.0000
CQUAD4      2336       1    2480    2487    2488    2481          0.0000
CQUAD4      2337       1    2482    2489    2490    2483          0.0000
CQUAD4      2338       1    2483    2490    2491    2484          0.0000
CQUAD4      2339       1    2484    2491    2492    2485          0.0000
CQUAD4      2340       1    2485    2492    2493    2486          0.0000
CQUAD4      2341       1    2486    2493    2494    2487          0.0000
CQUAD4      2342       1    2487    2494    2495    2488          0.0000
CQUAD4      2343       1    4006    3994    1348    3823          0.0000
CQUAD4      2344       1    3994    3993    1355    1348          0.0000
CQUAD4      2345       1    3993    3992    1362    1355          0.0000
CQUAD4      2346       1    3992    3991    1369    1362          0.0000
CQUAD4      2347       1    3991    3990    1376    1369          0.0000
CQUAD4      2348       1    3990    3989    1383    1376          0.0000
CQUAD4      2349       1    3989    3988    1390    1383          0.0000
CQUAD4      2350       1    3988    3987    1397    1390          0.0000
CQUAD4      2351       1    3987    3986    1404    1397          0.0000
CQUAD4      2352       1    3986    3985    1411    1404          0.0000
CQUAD4      2353       1    3985    3984    1418    1411          0.0000
CQUAD4      2354       1    3984    3983    1425    1418          0.0000
CQUAD4      2355       1    3983    3982    1432    1425          0.0000
CQUAD4      2356       1    3982    3981    1439    1432          0.0000
CQUAD4      2357       1    3981    3980    1446    1439          0.0000
CQUAD4      2358       1    3980    3979    1453    1446          0.0000
CQUAD4      2359       1    3979    3978    1460    1453          0.0000
CQUAD4      2360       1    3978    3977    1467    1460          0.0000
CQUAD4      2361       1    3977    3976    1474    1467          0.0000
CQUAD4      2362       1    3976    3975    1481    1474          0.0000
CQUAD4      2363       1    3975    3974    1488    1481          0.0000
CQUAD4      2364       1    3974    3973    1495    1488          0.0000
CQUAD4      2365       1    3973    3972    1502    1495          0.0000
CQUAD4      2366       1    3972    3971    1509    1502          0.0000
CQUAD4      2367       1    3971    3970    1516    1509          0.0000
CQUAD4      2368       1    3970    3969    1523    1516          0.0000
CQUAD4      2369       1    3969    3968    1530    1523          0.0000
CQUAD4      2370       1    3968    3967    1537    1530          0.0000
CQUAD4      2371       1    3967    3966    1544    1537          0.0000
CQUAD4      2372       1    3966    3965    1551    1544          0.0000
CQUAD4      2373       1    3965    3964    1558    1551          0.0000
CQUAD4      2374       1    3964    3963    1565    1558          0.0000
CQUAD4      2375       1    3963    3962    1572    1565          0.0000
CQUAD4      2376       1    3962    3961    1579    1572          0.0000
CQUAD4      2377       1    3961    3960    1586    1579          0.0000
CQUAD4      2378       1    3960    3959    1593    1586          0.0000
CQUAD4      2379       1    3959    3958    1600    1593          0.0000
CQUAD4      2380       1    3958    3957    1607    1600          0.0000
CQUAD4      2381       1    3957    3956    1614    1607          0.0000
CQUAD4      2382       1    3956    3955    1621    1614          0.0000
CQUAD4      2383       1    3955    3954    1628    1621          0.0000
CQUAD4      2384       1    3954    3953    1635    1628          0.0000
CQUAD4      2385       1    3953    3952    1642    1635          0.0000
CQUAD4      2386       1    3952    3951    1649    1642          0.0000
CQUAD4      2387       1    3951    3950    1656    1649          0.0000
CQUAD4      2388       1    3950    3949    1663    1656          0.0000
CQUAD4      2389       1    3949    3948    1670    1663          0.0000
CQUAD4      2390       1    3948    3947    1677    1670          0.0000
CQUAD4      2391       1    3947    3946    1684    1677          0.0000
CQUAD4      2392       1    3946    3945    1691    1684          0.0000
CQUAD4      2393       1    3945    3944    1698    1691          0.0000
CQUAD4      2394       1    3944    3943    1705    1698          0.0000
CQUAD4      2395       1    3943    3942    1712    1705          0.0000
CQUAD4      2396       1    3942    3941    1719    1712          0.0000
CQUAD4      2397       1    3941    3940    1726    1719          0.0000
CQUAD4      2398       1    3940    3939    1733    1726          0.0000
CQUAD4      2399       1    3939    3938    1740    1733          0.0000
CQUAD4      2400       1    3938    3937    1747    1740          0.0000
CQUAD4      2401       1    3937    3936    1754    1747          0.0000
CQUAD4      2402       1    3936    3935    1761    1754          0.0000
CQUAD4      2403       1    3935    3934    1768    1761          0.0000
CQUAD4      2404       1    3934    3933    1775    1768          0.0000
CQUAD4      2405       1    3933    3932    1782    1775          0.0000
CQUAD4      2406       1    3932    3931    1789    1782          0.0000
CQUAD4      2407       1    3931    3930    1796    1789          0.0000
CQUAD4      2408       1    3930    3929    1803    1796          0.0000
CQUAD4      2409       1    3929    3928    1810    1803          0.0000
CQUAD4      2410       1    3928    3927    1817    1810          0.0000
CQUAD4      2411       1    3927    3926    1824    1817          0.0000
CQUAD4      2412       1    3926    3925    1831    1824          0.0000
CQUAD4      2413       1    3925    3924    1838    1831          0.0000
CQUAD4      2414       1    3924    3923    1845    1838          0.0000
CQUAD4      2415       1    3923    3922    1852    1845          0.0000
CQUAD4      2416       1    3922    3921    1859    1852          0.0000
CQUAD4      2417       1    3921    3920    1866    1859          0.0000
CQUAD4      2418       1    3920    3919    1873    1866          0.0000
CQUAD4      2419       1    3919    3918    1880    1873          0.0000
CQUAD4      2420       1    3918    3917    1887    1880          0.0000
CQUAD4      2421       1    3917    3916    1894    1887          0.0000
CQUAD4      2422       1    3916    3915    1901    1894          0.0000
CQUAD4      2423       1    3915    3914    1908    1901          0.0000
CQUAD4      2424       1    3914    3913    1915    1908          0.0000
CQUAD4      2425       1    3913    3912    1922    1915          0.0000
CQUAD4      2426       1    3912    3911    1929    1922          0.0000
CQUAD4      2427       1    3911    3910    1936    1929          0.0000
CQUAD4      2428       1    3910    3909    1943    1936          0.0000
CQUAD4      2429       1    3909    3908    1950    1943          0.0000
CQUAD4      2430       1    3908    3907    1957    1950          0.0000
CQUAD4      2431       1    3907    3906    1964    1957          0.0000
CQUAD4      2432       1    3906    3905    1971    1964          0.0000
CQUAD4      2433       1    3905    3904    1978    1971          0.0000
CQUAD4      2434       1    3904    3903    1985    1978          0.0000
CQUAD4      2435       1    3903    3902    1992    1985          0.0000
CQUAD4      2436       1    3902    3901    1999    1992          0.0000
CQUAD4      2437       1    3901    3900    2006    1999          0.0000
CQUAD4      2438       1    3900    3899    2013    2006          0.0000
CQUAD4      2439       1    3899    3898    2020    2013          0.0000
CQUAD4      2440       1    3898    3897    2027    2020          0.0000
CQUAD4      2441       1    3897    3896    2034    2027          0.0000
CQUAD4      2442       1    3896    3895    2041    2034          0.0000
CQUAD4      2443       1    3895    3894    2048    2041          0.0000
CQUAD4      2444       1    3894    3893    2055    2048          0.0000
CQUAD4      2445       1    3893    3892    2062    2055          0.0000
CQUAD4      2446       1    3892    3891    2069    2062          0.0000
CQUAD4      2447       1    3891    3890    2076    2069          0.0000
CQUAD4      2448       1    3890    3889    2083    2076          0.0000
CQUAD4      2449       1    3889    3888    2090    2083          0.0000
CQUAD4      2450       1    3888    3887    2097    2090          0.0000
CQUAD4      2451       1    3887    3886    2104    2097          0.0000
CQUAD4      2452       1    3886    3885    2111    2104          0.0000
CQUAD4      2453       1    3885    3884    2118    2111          0.0000
CQUAD4      2454       1    3884    3883    2125    2118          0.0000
CQUAD4      2455       1    3883    3882    2132    2125          0.0000
CQUAD4      2456       1    3882    3881    2139    2132          0.0000
CQUAD4      2457       1    3881    3880    2146    2139          0.0000
CQUAD4      2458       1    3880    3879    2153    2146          0.0000
CQUAD4      2459       1    3879    3878    2160    2153          0.0000
CQUAD4      2460       1    3878    3877    2167    2160          0.0000
CQUAD4      2461       1    3877    3876    2174    2167          0.0000
CQUAD4      2462       1    3876    3875    2181    2174          0.0000
CQUAD4      2463       1    3875    3874    2188    2181          0.0000
CQUAD4      2464       1    3874    3873    2195    2188          0.0000
CQUAD4      2465       1    3873    3872    2202    2195          0.0000
CQUAD4      2466       1    3872    3871    2209    2202          0.0000
CQUAD4      2467       1    3871    3870    2216    2209          0.0000
CQUAD4      2468       1    3870    3869    2223    2216          0.0000
CQUAD4      2469       1    3869    3868    2230    2223          0.0000
CQUAD4      2470       1    3868    3867    2237    2230          0.0000
CQUAD4      2471       1    3867    3866    2244    2237          0.0000
CQUAD4      2472       1    3866    3865    2251    2244          0.0000
CQUAD4      2473       1    3865    3864    2258    2251          0.0000
CQUAD4      2474       1    3864    3863    2265    2258          0.0000
CQUAD4      2475       1    3863    3862    2272    2265          0.0000
CQUAD4      2476       1    3862    3861    2279    2272          0.0000
CQUAD4      2477       1    3861    3860    2286    2279          0.0000
CQUAD4      2478       1    3860    3859    2293    2286          0.0000
CQUAD4      2479       1    3859    3858    2300    2293          0.0000
CQUAD4      2480       1    3858    3857    2307    2300          0.0000
CQUAD4      2481       1    3857    3856    2314    2307          0.0000
CQUAD4      2482       1    3856    3855    2321    2314          0.0000
CQUAD4      2483       1    3855    3854    2328    2321          0.0000
CQUAD4      2484       1    3854    3853    2335    2328          0.0000
CQUAD4      2485       1    3853    3852    2342    2335          0.0000
CQUAD4      2486       1    3852    3851    2349    2342          0.0000
CQUAD4      2487       1    3851    3850    2356    2349          0.0000
CQUAD4      2488       1    3850    3849    2363    2356          0.0000
CQUAD4      2489       1    3849    3848    2370    2363          0.0000
CQUAD4      2490       1    3848    3847    2377    2370          0.0000
CQUAD4      2491       1    3847    3846    2384    2377          0.0000
CQUAD4      2492       1    3846    3845    2391    2384          0.0000
CQUAD4      2493       1    3845    3844    2398    2391          0.0000
CQUAD4      2494       1    3844    3843    2405    2398          0.0000
CQUAD4      2495       1    3843    3842    2412    2405          0.0000
CQUAD4      2496       1    3842    3841    2419    2412          0.0000
CQUAD4      2497       1    3841    3840    2426    2419          0.0000
CQUAD4      2498       1    3840    3839    2433    2426          0.0000
CQUAD4      2499       1    3839    3838    2440    2433          0.0000
CQUAD4      2500       1    3838    3837    2447    2440          0.0000
CQUAD4      2501       1    3837    3836    2454    2447          0.0000
CQUAD4      2502       1    3836    3835    2461    2454          0.0000
CQUAD4      2503       1    3835    3834    2468    2461          0.0000
CQUAD4      2504       1    3834    3833    2475    2468          0.0000
CQUAD4      2505       1    3833    3832    2482    2475          0.0000
CQUAD4      2506       1    3832    3831    2489    2482          0.0000
CQUAD4      2507       1    3831    4007    3824    2489          0.0000
CQUAD4      2508       1    2489    3824    3825    2490          0.0000
CQUAD4      2509       1    2490    3825    3826    2491          0.0000
CQUAD4      2510       1    2491    3826    3827    2492          0.0000
CQUAD4      2511       1    2492    3827    3828    2493          0.0000
CQUAD4      2512       1    2493    3828    3829    2494          0.0000
CQUAD4      2513       1    2494    3829    3830    2495          0.0000
CQUAD4      2514       1    2495    3830     663     497          0.0000
CQUAD4      2515       1    2488    2495     497     498          0.0000
CQUAD4      2516       1    2481    2488     498     499          0.0000
CQUAD4      2517       1    2474    2481     499     500          0.0000
CQUAD4      2518       1    2467    2474     500     501          0.0000
CQUAD4      2519       1    2460    2467     501     502          0.0000
CQUAD4      2520       1    2453    2460     502     503          0.0000
CQUAD4      2521       1    2446    2453     503     504          0.0000
CQUAD4      2522       1    2439    2446     504     505          0.0000
CQUAD4      2523       1    2432    2439     505     506          0.0000
CQUAD4      2524       1    2425    2432     506     507          0.0000
CQUAD4      2525       1    2418    2425     507     508          0.0000
CQUAD4      2526       1    2411    2418     508     509          0.0000
CQUAD4      2527       1    2404    2411     509     510          0.0000
CQUAD4      2528       1    2397    2404     510     511          0.0000
CQUAD4      2529       1    2390    2397     511     512          0.0000
CQUAD4      2530       1    2383    2390     512     513          0.0000
CQUAD4      2531       1    2376    2383     513     514          0.0000
CQUAD4      2532       1    2369    2376     514     515          0.0000
CQUAD4      2533       1    2362    2369     515     516          0.0000
CQUAD4      2534       1    2355    2362     516     517          0.0000
CQUAD4      2535       1    2348    2355     517     518          0.0000
CQUAD4      2536       1    2341    2348     518     519          0.0000
CQUAD4      2537       1    2334    2341     519     520          0.0000
CQUAD4      2538       1    2327    2334     520     521          0.0000
CQUAD4      2539       1    2320    2327     521     522          0.0000
CQUAD4      2540       1    2313    2320     522     523          0.0000
CQUAD4      2541       1    2306    2313     523     524          0.0000
CQUAD4      2542       1    2299    2306     524     525          0.0000
CQUAD4      2543       1    2292    2299     525     526          0.0000
CQUAD4      2544       1    2285    2292     526     527          0.0000
CQUAD4      2545       1    2278    2285     527     528          0.0000
CQUAD4      2546       1    2271    2278     528     529          0.0000
CQUAD4      2547       1    2264    2271     529     530          0.0000
CQUAD4      2548       1    2257    2264     530     531          0.0000
CQUAD4      2549       1    2250    2257     531     532          0.0000
CQUAD4      2550       1    2243    2250     532     533          0.0000
CQUAD4      2551       1    2236    2243     533     534          0.0000
CQUAD4      2552       1    2229    2236     534     535          0.0000
CQUAD4      2553       1    2222    2229     535     536          0.0000
CQUAD4      2554       1    2215    2222     536     537          0.0000
CQUAD4      2555       1    2208    2215     537     538          0.0000
CQUAD4      2556       1    2201    2208     538     539          0.0000
CQUAD4      2557       1    2194    2201     539     540          0.0000
CQUAD4      2558       1    2187    2194     540     541          0.0000
CQUAD4      2559       1    2180    2187     541     542          0.0000
CQUAD4      2560       1    2173    2180     542     543          0.0000
CQUAD4      2561       1    2166    2173     543     544          0.0000
CQUAD4      2562       1    2159    2166     544     545          0.0000
CQUAD4      2563       1    2152    2159     545     546          0.0000
CQUAD4      2564       1    2145    2152     546     547          0.0000
CQUAD4      2565       1    2138    2145     547     548          0.0000
CQUAD4      2566       1    2131    2138     548     549          0.0000
CQUAD4      2567       1    2124    2131     549     550          0.0000
CQUAD4      2568       1    2117    2124     550     551          0.0000
CQUAD4      2569       1    2110    2117     551     552          0.0000
CQUAD4      2570       1    2103    2110     552     553          0.0000
CQUAD4      2571       1    2096    2103     553     554          0.0000
CQUAD4      2572       1    2089    2096     554     555          0.0000
CQUAD4      2573       1    2082    2089     555     556          0.0000
CQUAD4      2574       1    2075    2082     556     557          0.0000
CQUAD4      2575       1    2068    2075     557     558          0.0000
CQUAD4      2576       1    2061    2068     558     559          0.0000
CQUAD4      2577       1    2054    2061     559     560          0.0000
CQUAD4      2578       1    2047    2054     560     561          0.0000
CQUAD4      2579       1    2040    2047     561     562          0.0000
CQUAD4      2580       1    2033    2040     562     563          0.0000
CQUAD4      2581       1    2026    2033     563     564          0.0000
CQUAD4      2582       1    2019    2026     564     565          0.0000
CQUAD4      2583       1    2012    2019     565     566          0.0000
CQUAD4      2584       1    2005    2012     566     567          0.0000
CQUAD4      2585       1    1998    2005     567     568          0.0000
CQUAD4      2586       1    1991    1998     568     569          0.0000
CQUAD4      2587       1    1984    1991     569     570          0.0000
CQUAD4      2588       1    1977    1984     570     571          0.0000
CQUAD4      2589       1    1970    1977     571     572          0.0000
CQUAD4      2590       1    1963    1970     572     573          0.0000
CQUAD4      2591       1    1956    1963     573     574          0.0000
CQUAD4      2592       1    1949    1956     574     575          0.0000
CQUAD4      2593       1    1942    1949     575     576          0.0000
CQUAD4      2594       1    1935    1942     576     577          0.0000
CQUAD4      2595       1    1928    1935     577     578          0.0000
CQUAD4      2596       1    1921    1928     578     579          0.0000
CQUAD4      2597       1    1914    1921     579     580          0.0000
CQUAD4      2598       1    1907    1914     580     581          0.0000
CQUAD4      2599       1    1900    1907     581     582          0.0000
CQUAD4      2600       1    1893    1900     582     583          0.0000
CQUAD4      2601       1    1886    1893     583     584          0.0000
CQUAD4      2602       1    1879    1886     584     585          0.0000
CQUAD4      2603       1    1872    1879     585     586          0.0000
CQUAD4      2604       1    1865    1872     586     587          0.0000
CQUAD4      2605       1    1858    1865     587     588          0.0000
CQUAD4      2606       1    1851    1858     588     589          0.0000
CQUAD4      2607       1    1844    1851     589     590          0.0000
CQUAD4      2608       1    1837    1844     590     591          0.0000
CQUAD4      2609       1    1830    1837     591     592          0.0000
CQUAD4      2610       1    1823    1830     592     593          0.0000
CQUAD4      2611       1    1816    1823     593     594          0.0000
CQUAD4      2612       1    1809    1816     594     595          0.0000
CQUAD4      2613       1    1802    1809     595     596          0.0000
CQUAD4      2614       1    1795    1802     596     597          0.0000
CQUAD4      2615       1    1788    1795     597     598          0.0000
CQUAD4      2616       1    1781    1788     598     599          0.0000
CQUAD4      2617       1    1774    1781     599     600          0.0000
CQUAD4      2618       1    1767    1774     600     601          0.0000
CQUAD4      2619       1    1760    1767     601     602          0.0000
CQUAD4      2620       1    1753    1760     602     603          0.0000
CQUAD4      2621       1    1746    1753     603     604          0.0000
CQUAD4      2622       1    1739    1746     604     605          0.0000
CQUAD4      2623       1    1732    1739     605     606          0.0000
CQUAD4      2624       1    1725    1732     606     607          0.0000
CQUAD4      2625       1    1718    1725     607     608          0.0000
CQUAD4      2626       1    1711    1718     608     609          0.0000
CQUAD4      2627       1    1704    1711     609     610          0.0000
CQUAD4      2628       1    1697    1704     610     611          0.0000
CQUAD4      2629       1    1690    1697     611     612          0.0000
CQUAD4      2630       1    1683    1690     612     613          0.0000
CQUAD4      2631       1    1676    1683     613     614          0.0000
CQUAD4      2632       1    1669    1676     614     615          0.0000
CQUAD4      2633       1    1662    1669     615     616          0.0000
CQUAD4      2634       1    1655    1662     616     617          0.0000
CQUAD4      2635       1    1648    1655     617     618          0.0000
CQUAD4      2636       1    1641    1648     618     619          0.0000
CQUAD4      2637       1    1634    1641     619     620          0.0000
CQUAD4      2638       1    1627    1634     620     621          0.0000
CQUAD4      2639       1    1620    1627     621     622          0.0000
CQUAD4      2640       1    1613    1620     622     623          0.0000
CQUAD4      2641       1    1606    1613     623     624          0.0000
CQUAD4      2642       1    1599    1606     624     625          0.0000
CQUAD4      2643       1    1592    1599     625     626          0.0000
CQUAD4      2644       1    1585    1592     626     627          0.0000
CQUAD4      2645       1    1578    1585     627     628          0.0000
CQUAD4      2646       1    1571    1578     628     629          0.0000
CQUAD4      2647       1    1564    1571     629     630          0.0000
CQUAD4      2648       1    1557    1564     630     631          0.0000
CQUAD4      2649       1    1550    1557     631     632          0.0000
CQUAD4      2650       1    1543    1550     632     633          0.0000
CQUAD4      2651       1    1536    1543     633     634          0.0000
CQUAD4      2652       1    1529    1536     634     635          0.0000
CQUAD4      2653       1    1522    1529     635     636          0.0000
CQUAD4      2654       1    1515    1522     636     637          0.0000
CQUAD4      2655       1    1508    1515     637     638          0.0000
CQUAD4      2656       1    1501    1508     638     639          0.0000
CQUAD4      2657       1    1494    1501     639     640          0.0000
CQUAD4      2658       1    1487    1494     640     641          0.0000
CQUAD4      2659       1    1480    1487     641     642          0.0000
CQUAD4      2660       1    1473    1480     642     643          0.0000
CQUAD4      2661       1    1466    1473     643     644          0.0000
CQUAD4      2662       1    1459    1466     644     645          0.0000
CQUAD4      2663       1    1452    1459     645     646          0.0000
CQUAD4      2664       1    1445    1452     646     647          0.0000
CQUAD4      2665       1    1438    1445     647     648          0.0000
CQUAD4      2666       1    1431    1438     648     649          0.0000
CQUAD4      2667       1    1424    1431     649     650          0.0000
CQUAD4      2668       1    1417    1424     650     651          0.0000
CQUAD4      2669       1    1410    1417     651     652          0.0000
CQUAD4      2670       1    1403    1410     652     653          0.0000
CQUAD4      2671       1    1396    1403     653     654          0.0000
CQUAD4      2672       1    1389    1396     654     655          0.0000
CQUAD4      2673       1    1382    1389     655     656          0.0000
CQUAD4      2674       1    1375    1382     656     657          0.0000
CQUAD4      2675       1    1368    1375     657     658          0.0000
CQUAD4      2676       1    1361    1368     658     659          0.0000
CQUAD4      2677       1    1354    1361     659     660          0.0000
CQUAD4      2678       1    3817    1354     660     664          0.0000
CQUAD4      2679       1    3818    1353    1354    3817          0.0000
CQUAD4      2680       1    3819    1352    1353    3818          0.0000
CQUAD4      2681       1    3820    1351    1352    3819          0.0000
CQUAD4      2682       1    3821    1350    1351    3820          0.0000
CQUAD4      2683       1    3822    1349    1350    3821          0.0000
CQUAD4      2684       1    3823    1348    1349    3822          0.0000
$*  NX Mesh Collector: WING
$*  NX Mesh: 2d_mesh(4)
CQUAD4      3840       1    4008    4011    4012    4009          0.0000
CQUAD4      3841       1    4009    4012    4013    4010          0.0000
CQUAD4      3842       1    4011    4014    4015    4012          0.0000
CQUAD4      3843       1    4012    4015    4016    4013          0.0000
CQUAD4      3844       1    4014    4017    4018    4015          0.0000
CQUAD4      3845       1    4015    4018    4019    4016          0.0000
CQUAD4      3846       1    4017    4020    4021    4018          0.0000
CQUAD4      3847       1    4018    4021    4022    4019          0.0000
CQUAD4      3848       1    4020    4023    4024    4021          0.0000
CQUAD4      3849       1    4021    4024    4025    4022          0.0000
CQUAD4      3850       1    4023    4026    4027    4024          0.0000
CQUAD4      3851       1    4024    4027    4028    4025          0.0000
CQUAD4      3852       1    4026    4029    4030    4027          0.0000
CQUAD4      3853       1    4027    4030    4031    4028          0.0000
CQUAD4      3854       1    4029    4032    4033    4030          0.0000
CQUAD4      3855       1    4030    4033    4034    4031          0.0000
CQUAD4      3856       1    4032    4035    4036    4033          0.0000
CQUAD4      3857       1    4033    4036    4037    4034          0.0000
CQUAD4      3858       1    4035    4038    4039    4036          0.0000
CQUAD4      3859       1    4036    4039    4040    4037          0.0000
CQUAD4      3860       1    4038    4041    4042    4039          0.0000
CQUAD4      3861       1    4039    4042    4043    4040          0.0000
CQUAD4      3862       1    4041    4044    4045    4042          0.0000
CQUAD4      3863       1    4042    4045    4046    4043          0.0000
CQUAD4      3864       1    4044    4047    4048    4045          0.0000
CQUAD4      3865       1    4045    4048    4049    4046          0.0000
CQUAD4      3866       1    4047    4050    4051    4048          0.0000
CQUAD4      3867       1    4048    4051    4052    4049          0.0000
CQUAD4      3868       1    4050    4053    4054    4051          0.0000
CQUAD4      3869       1    4051    4054    4055    4052          0.0000
CQUAD4      3870       1    4053    4056    4057    4054          0.0000
CQUAD4      3871       1    4054    4057    4058    4055          0.0000
CQUAD4      3872       1    4056    4059    4060    4057          0.0000
CQUAD4      3873       1    4057    4060    4061    4058          0.0000
CQUAD4      3874       1    4059    4062    4063    4060          0.0000
CQUAD4      3875       1    4060    4063    4064    4061          0.0000
CQUAD4      3876       1    4062    4065    4066    4063          0.0000
CQUAD4      3877       1    4063    4066    4067    4064          0.0000
CQUAD4      3878       1    4065    4068    4069    4066          0.0000
CQUAD4      3879       1    4066    4069    4070    4067          0.0000
CQUAD4      3880       1    4068    4071    4072    4069          0.0000
CQUAD4      3881       1    4069    4072    4073    4070          0.0000
CQUAD4      3882       1    4071    4074    4075    4072          0.0000
CQUAD4      3883       1    4072    4075    4076    4073          0.0000
CQUAD4      3884       1    4074    4077    4078    4075          0.0000
CQUAD4      3885       1    4075    4078    4079    4076          0.0000
CQUAD4      3886       1    4077    4080    4081    4078          0.0000
CQUAD4      3887       1    4078    4081    4082    4079          0.0000
CQUAD4      3888       1    4080    4083    4084    4081          0.0000
CQUAD4      3889       1    4081    4084    4085    4082          0.0000
CQUAD4      3890       1    4083    4086    4087    4084          0.0000
CQUAD4      3891       1    4084    4087    4088    4085          0.0000
CQUAD4      3892       1    4086    4089    4090    4087          0.0000
CQUAD4      3893       1    4087    4090    4091    4088          0.0000
CQUAD4      3894       1    4089    4092    4093    4090          0.0000
CQUAD4      3895       1    4090    4093    4094    4091          0.0000
CQUAD4      3896       1    4092    4095    4096    4093          0.0000
CQUAD4      3897       1    4093    4096    4097    4094          0.0000
CQUAD4      3898       1    4095    4098    4099    4096          0.0000
CQUAD4      3899       1    4096    4099    4100    4097          0.0000
CQUAD4      3900       1    4098    4101    4102    4099          0.0000
CQUAD4      3901       1    4099    4102    4103    4100          0.0000
CQUAD4      3902       1    4101    4104    4105    4102          0.0000
CQUAD4      3903       1    4102    4105    4106    4103          0.0000
CQUAD4      3904       1    4104    4107    4108    4105          0.0000
CQUAD4      3905       1    4105    4108    4109    4106          0.0000
CQUAD4      3906       1    4107    4110    4111    4108          0.0000
CQUAD4      3907       1    4108    4111    4112    4109          0.0000
CQUAD4      3908       1    4110    4113    4114    4111          0.0000
CQUAD4      3909       1    4111    4114    4115    4112          0.0000
CQUAD4      3910       1    4113    4116    4117    4114          0.0000
CQUAD4      3911       1    4114    4117    4118    4115          0.0000
CQUAD4      3912       1    4116    4119    4120    4117          0.0000
CQUAD4      3913       1    4117    4120    4121    4118          0.0000
CQUAD4      3914       1    4119    4122    4123    4120          0.0000
CQUAD4      3915       1    4120    4123    4124    4121          0.0000
CQUAD4      3916       1    4122    4125    4126    4123          0.0000
CQUAD4      3917       1    4123    4126    4127    4124          0.0000
CQUAD4      3918       1    4125    4128    4129    4126          0.0000
CQUAD4      3919       1    4126    4129    4130    4127          0.0000
CQUAD4      3920       1    4128    4131    4132    4129          0.0000
CQUAD4      3921       1    4129    4132    4133    4130          0.0000
CQUAD4      3922       1    4131    4134    4135    4132          0.0000
CQUAD4      3923       1    4132    4135    4136    4133          0.0000
CQUAD4      3924       1    4134    4137    4138    4135          0.0000
CQUAD4      3925       1    4135    4138    4139    4136          0.0000
CQUAD4      3926       1    4137    4140    4141    4138          0.0000
CQUAD4      3927       1    4138    4141    4142    4139          0.0000
CQUAD4      3928       1    4140    4143    4144    4141          0.0000
CQUAD4      3929       1    4141    4144    4145    4142          0.0000
CQUAD4      3930       1    4143    4146    4147    4144          0.0000
CQUAD4      3931       1    4144    4147    4148    4145          0.0000
CQUAD4      3932       1    4146    4149    4150    4147          0.0000
CQUAD4      3933       1    4147    4150    4151    4148          0.0000
CQUAD4      3934       1    4149    4152    4153    4150          0.0000
CQUAD4      3935       1    4150    4153    4154    4151          0.0000
CQUAD4      3936       1    4152    4155    4156    4153          0.0000
CQUAD4      3937       1    4153    4156    4157    4154          0.0000
CQUAD4      3938       1    4155    4158    4159    4156          0.0000
CQUAD4      3939       1    4156    4159    4160    4157          0.0000
CQUAD4      3940       1    4158    4161    4162    4159          0.0000
CQUAD4      3941       1    4159    4162    4163    4160          0.0000
CQUAD4      3942       1    4161    4164    4165    4162          0.0000
CQUAD4      3943       1    4162    4165    4166    4163          0.0000
CQUAD4      3944       1    4164    4167    4168    4165          0.0000
CQUAD4      3945       1    4165    4168    4169    4166          0.0000
CQUAD4      3946       1    4167    4170    4171    4168          0.0000
CQUAD4      3947       1    4168    4171    4172    4169          0.0000
CQUAD4      3948       1    4170    4173    4174    4171          0.0000
CQUAD4      3949       1    4171    4174    4175    4172          0.0000
CQUAD4      3950       1    4173    4176    4177    4174          0.0000
CQUAD4      3951       1    4174    4177    4178    4175          0.0000
CQUAD4      3952       1    4176    4179    4180    4177          0.0000
CQUAD4      3953       1    4177    4180    4181    4178          0.0000
CQUAD4      3954       1    4179    4182    4183    4180          0.0000
CQUAD4      3955       1    4180    4183    4184    4181          0.0000
CQUAD4      3956       1    4182    4185    4186    4183          0.0000
CQUAD4      3957       1    4183    4186    4187    4184          0.0000
CQUAD4      3958       1    4185    4188    4189    4186          0.0000
CQUAD4      3959       1    4186    4189    4190    4187          0.0000
CQUAD4      3960       1    4188    4191    4192    4189          0.0000
CQUAD4      3961       1    4189    4192    4193    4190          0.0000
CQUAD4      3962       1    4191    4194    4195    4192          0.0000
CQUAD4      3963       1    4192    4195    4196    4193          0.0000
CQUAD4      3964       1    4194    4197    4198    4195          0.0000
CQUAD4      3965       1    4195    4198    4199    4196          0.0000
CQUAD4      3966       1    4197    4200    4201    4198          0.0000
CQUAD4      3967       1    4198    4201    4202    4199          0.0000
CQUAD4      3968       1    4200    4203    4204    4201          0.0000
CQUAD4      3969       1    4201    4204    4205    4202          0.0000
CQUAD4      3970       1    4203    4206    4207    4204          0.0000
CQUAD4      3971       1    4204    4207    4208    4205          0.0000
CQUAD4      3972       1    4206    4209    4210    4207          0.0000
CQUAD4      3973       1    4207    4210    4211    4208          0.0000
CQUAD4      3974       1    4209    4212    4213    4210          0.0000
CQUAD4      3975       1    4210    4213    4214    4211          0.0000
CQUAD4      3976       1    4212    4215    4216    4213          0.0000
CQUAD4      3977       1    4213    4216    4217    4214          0.0000
CQUAD4      3978       1    4215    4218    4219    4216          0.0000
CQUAD4      3979       1    4216    4219    4220    4217          0.0000
CQUAD4      3980       1    4218    4221    4222    4219          0.0000
CQUAD4      3981       1    4219    4222    4223    4220          0.0000
CQUAD4      3982       1    4221    4224    4225    4222          0.0000
CQUAD4      3983       1    4222    4225    4226    4223          0.0000
CQUAD4      3984       1    4224    4227    4228    4225          0.0000
CQUAD4      3985       1    4225    4228    4229    4226          0.0000
CQUAD4      3986       1    4227    4230    4231    4228          0.0000
CQUAD4      3987       1    4228    4231    4232    4229          0.0000
CQUAD4      3988       1    4230    4233    4234    4231          0.0000
CQUAD4      3989       1    4231    4234    4235    4232          0.0000
CQUAD4      3990       1    4233    4236    4237    4234          0.0000
CQUAD4      3991       1    4234    4237    4238    4235          0.0000
CQUAD4      3992       1    4236    4239    4240    4237          0.0000
CQUAD4      3993       1    4237    4240    4241    4238          0.0000
CQUAD4      3994       1    4239    4242    4243    4240          0.0000
CQUAD4      3995       1    4240    4243    4244    4241          0.0000
CQUAD4      3996       1    4242    4245    4246    4243          0.0000
CQUAD4      3997       1    4243    4246    4247    4244          0.0000
CQUAD4      3998       1    4245    4248    4249    4246          0.0000
CQUAD4      3999       1    4246    4249    4250    4247          0.0000
CQUAD4      4000       1    4248    4251    4252    4249          0.0000
CQUAD4      4001       1    4249    4252    4253    4250          0.0000
CQUAD4      4002       1    4251    4254    4255    4252          0.0000
CQUAD4      4003       1    4252    4255    4256    4253          0.0000
CQUAD4      4004       1    4254    4257    4258    4255          0.0000
CQUAD4      4005       1    4255    4258    4259    4256          0.0000
CQUAD4      4006       1    4257    4260    4261    4258          0.0000
CQUAD4      4007       1    4258    4261    4262    4259          0.0000
CQUAD4      4008       1    4260    4263    4264    4261          0.0000
CQUAD4      4009       1    4261    4264    4265    4262          0.0000
CQUAD4      4010       1    4263    4266    4267    4264          0.0000
CQUAD4      4011       1    4264    4267    4268    4265          0.0000
CQUAD4      4012       1    4266    4269    4270    4267          0.0000
CQUAD4      4013       1    4267    4270    4271    4268          0.0000
CQUAD4      4014       1    4269    4272    4273    4270          0.0000
CQUAD4      4015       1    4270    4273    4274    4271          0.0000
CQUAD4      4016       1    4272    4275    4276    4273          0.0000
CQUAD4      4017       1    4273    4276    4277    4274          0.0000
CQUAD4      4018       1    4275    4278    4279    4276          0.0000
CQUAD4      4019       1    4276    4279    4280    4277          0.0000
CQUAD4      4020       1    4278    4281    4282    4279          0.0000
CQUAD4      4021       1    4279    4282    4283    4280          0.0000
CQUAD4      4022       1    4281    4284    4285    4282          0.0000
CQUAD4      4023       1    4282    4285    4286    4283          0.0000
CQUAD4      4024       1    4284    4287    4288    4285          0.0000
CQUAD4      4025       1    4285    4288    4289    4286          0.0000
CQUAD4      4026       1    4287    4290    4291    4288          0.0000
CQUAD4      4027       1    4288    4291    4292    4289          0.0000
CQUAD4      4028       1    4290    4293    4294    4291          0.0000
CQUAD4      4029       1    4291    4294    4295    4292          0.0000
CQUAD4      4030       1    4293    4296    4297    4294          0.0000
CQUAD4      4031       1    4294    4297    4298    4295          0.0000
CQUAD4      4032       1    4296    4299    4300    4297          0.0000
CQUAD4      4033       1    4297    4300    4301    4298          0.0000
CQUAD4      4034       1    4299    4302    4303    4300          0.0000
CQUAD4      4035       1    4300    4303    4304    4301          0.0000
CQUAD4      4036       1    4302    4305    4306    4303          0.0000
CQUAD4      4037       1    4303    4306    4307    4304          0.0000
CQUAD4      4038       1    4305    4308    4309    4306          0.0000
CQUAD4      4039       1    4306    4309    4310    4307          0.0000
CQUAD4      4040       1    4308    4311    4312    4309          0.0000
CQUAD4      4041       1    4309    4312    4313    4310          0.0000
CQUAD4      4042       1    4311    4314    4315    4312          0.0000
CQUAD4      4043       1    4312    4315    4316    4313          0.0000
CQUAD4      4044       1    4314    4317    4318    4315          0.0000
CQUAD4      4045       1    4315    4318    4319    4316          0.0000
CQUAD4      4046       1    4317    4320    4321    4318          0.0000
CQUAD4      4047       1    4318    4321    4322    4319          0.0000
CQUAD4      4048       1    4320    4323    4324    4321          0.0000
CQUAD4      4049       1    4321    4324    4325    4322          0.0000
CQUAD4      4050       1    4323    4326    4327    4324          0.0000
CQUAD4      4051       1    4324    4327    4328    4325          0.0000
CQUAD4      4052       1    4326    4329    4330    4327          0.0000
CQUAD4      4053       1    4327    4330    4331    4328          0.0000
CQUAD4      4054       1    4329    4332    4333    4330          0.0000
CQUAD4      4055       1    4330    4333    4334    4331          0.0000
CQUAD4      4056       1    4332    4335    4336    4333          0.0000
CQUAD4      4057       1    4333    4336    4337    4334          0.0000
CQUAD4      4058       1    4335    4338    4339    4336          0.0000
CQUAD4      4059       1    4336    4339    4340    4337          0.0000
CQUAD4      4060       1    4338    4341    4342    4339          0.0000
CQUAD4      4061       1    4339    4342    4343    4340          0.0000
CQUAD4      4062       1    4341    4344    4345    4342          0.0000
CQUAD4      4063       1    4342    4345    4346    4343          0.0000
CQUAD4      4064       1    4344    4347    4348    4345          0.0000
CQUAD4      4065       1    4345    4348    4349    4346          0.0000
CQUAD4      4066       1    4347    4350    4351    4348          0.0000
CQUAD4      4067       1    4348    4351    4352    4349          0.0000
CQUAD4      4068       1    4350    4353    4354    4351          0.0000
CQUAD4      4069       1    4351    4354    4355    4352          0.0000
CQUAD4      4070       1    4353    4356    4357    4354          0.0000
CQUAD4      4071       1    4354    4357    4358    4355          0.0000
CQUAD4      4072       1    4356    4359    4360    4357          0.0000
CQUAD4      4073       1    4357    4360    4361    4358          0.0000
CQUAD4      4074       1    4359    4362    4363    4360          0.0000
CQUAD4      4075       1    4360    4363    4364    4361          0.0000
CQUAD4      4076       1    4362    4365    4366    4363          0.0000
CQUAD4      4077       1    4363    4366    4367    4364          0.0000
CQUAD4      4078       1    4365    4368    4369    4366          0.0000
CQUAD4      4079       1    4366    4369    4370    4367          0.0000
CQUAD4      4080       1    4368    4371    4372    4369          0.0000
CQUAD4      4081       1    4369    4372    4373    4370          0.0000
CQUAD4      4082       1    4371    4374    4375    4372          0.0000
CQUAD4      4083       1    4372    4375    4376    4373          0.0000
CQUAD4      4084       1    4374    4377    4378    4375          0.0000
CQUAD4      4085       1    4375    4378    4379    4376          0.0000
CQUAD4      4086       1    4377    4380    4381    4378          0.0000
CQUAD4      4087       1    4378    4381    4382    4379          0.0000
CQUAD4      4088       1    4380    4383    4384    4381          0.0000
CQUAD4      4089       1    4381    4384    4385    4382          0.0000
CQUAD4      4090       1    4383    4386    4387    4384          0.0000
CQUAD4      4091       1    4384    4387    4388    4385          0.0000
CQUAD4      4092       1    4386    4389    4390    4387          0.0000
CQUAD4      4093       1    4387    4390    4391    4388          0.0000
CQUAD4      4094       1    4389    4392    4393    4390          0.0000
CQUAD4      4095       1    4390    4393    4394    4391          0.0000
CQUAD4      4096       1    4392    4395    4396    4393          0.0000
CQUAD4      4097       1    4393    4396    4397    4394          0.0000
CQUAD4      4098       1    4395    4398    4399    4396          0.0000
CQUAD4      4099       1    4396    4399    4400    4397          0.0000
CQUAD4      4100       1    4398    4401    4402    4399          0.0000
CQUAD4      4101       1    4399    4402    4403    4400          0.0000
CQUAD4      4102       1    4401    4404    4405    4402          0.0000
CQUAD4      4103       1    4402    4405    4406    4403          0.0000
CQUAD4      4104       1    4404    4407    4408    4405          0.0000
CQUAD4      4105       1    4405    4408    4409    4406          0.0000
CQUAD4      4106       1    4407    4410    4411    4408          0.0000
CQUAD4      4107       1    4408    4411    4412    4409          0.0000
CQUAD4      4108       1    4410    4413    4414    4411          0.0000
CQUAD4      4109       1    4411    4414    4415    4412          0.0000
CQUAD4      4110       1    4413    4416    4417    4414          0.0000
CQUAD4      4111       1    4414    4417    4418    4415          0.0000
CQUAD4      4112       1    4416    4419    4420    4417          0.0000
CQUAD4      4113       1    4417    4420    4421    4418          0.0000
CQUAD4      4114       1    4419    4422    4423    4420          0.0000
CQUAD4      4115       1    4420    4423    4424    4421          0.0000
CQUAD4      4116       1    4422    4425    4426    4423          0.0000
CQUAD4      4117       1    4423    4426    4427    4424          0.0000
CQUAD4      4118       1    4425    4428    4429    4426          0.0000
CQUAD4      4119       1    4426    4429    4430    4427          0.0000
CQUAD4      4120       1    4428    4431    4432    4429          0.0000
CQUAD4      4121       1    4429    4432    4433    4430          0.0000
CQUAD4      4122       1    4431    4434    4435    4432          0.0000
CQUAD4      4123       1    4432    4435    4436    4433          0.0000
CQUAD4      4124       1    4434    4437    4438    4435          0.0000
CQUAD4      4125       1    4435    4438    4439    4436          0.0000
CQUAD4      4126       1    4437    4440    4441    4438          0.0000
CQUAD4      4127       1    4438    4441    4442    4439          0.0000
CQUAD4      4128       1    4440    4443    4444    4441          0.0000
CQUAD4      4129       1    4441    4444    4445    4442          0.0000
CQUAD4      4130       1    4443    4446    4447    4444          0.0000
CQUAD4      4131       1    4444    4447    4448    4445          0.0000
CQUAD4      4132       1    4446    4449    4450    4447          0.0000
CQUAD4      4133       1    4447    4450    4451    4448          0.0000
CQUAD4      4134       1    4449    4452    4453    4450          0.0000
CQUAD4      4135       1    4450    4453    4454    4451          0.0000
CQUAD4      4136       1    4452    4455    4456    4453          0.0000
CQUAD4      4137       1    4453    4456    4457    4454          0.0000
CQUAD4      4138       1    4455    4458    4459    4456          0.0000
CQUAD4      4139       1    4456    4459    4460    4457          0.0000
CQUAD4      4140       1    4458    4461    4462    4459          0.0000
CQUAD4      4141       1    4459    4462    4463    4460          0.0000
CQUAD4      4142       1    4461    4464    4465    4462          0.0000
CQUAD4      4143       1    4462    4465    4466    4463          0.0000
CQUAD4      4144       1    4464    4467    4468    4465          0.0000
CQUAD4      4145       1    4465    4468    4469    4466          0.0000
CQUAD4      4146       1    4467    4470    4471    4468          0.0000
CQUAD4      4147       1    4468    4471    4472    4469          0.0000
CQUAD4      4148       1    4470    4473    4474    4471          0.0000
CQUAD4      4149       1    4471    4474    4475    4472          0.0000
CQUAD4      4150       1    4473    4476    4477    4474          0.0000
CQUAD4      4151       1    4474    4477    4478    4475          0.0000
CQUAD4      4152       1    4476    4479    4480    4477          0.0000
CQUAD4      4153       1    4477    4480    4481    4478          0.0000
CQUAD4      4154       1    4479    4482    4483    4480          0.0000
CQUAD4      4155       1    4480    4483    4484    4481          0.0000
CQUAD4      4156       1    4482    4485    4486    4483          0.0000
CQUAD4      4157       1    4483    4486    4487    4484          0.0000
CQUAD4      4158       1    4485    4488    4489    4486          0.0000
CQUAD4      4159       1    4486    4489    4490    4487          0.0000
CQUAD4      4160       1    4488    4491    4492    4489          0.0000
CQUAD4      4161       1    4489    4492    4493    4490          0.0000
CQUAD4      4162       1    4491    4494    4495    4492          0.0000
CQUAD4      4163       1    4492    4495    4496    4493          0.0000
CQUAD4      4164       1    4494    4497    4498    4495          0.0000
CQUAD4      4165       1    4495    4498    4499    4496          0.0000
CQUAD4      4166       1     661     492    4008    4500          0.0000
CQUAD4      4167       1     492     491    4011    4008          0.0000
CQUAD4      4168       1     491     490    4014    4011          0.0000
CQUAD4      4169       1     490     489    4017    4014          0.0000
CQUAD4      4170       1     489     488    4020    4017          0.0000
CQUAD4      4171       1     488     487    4023    4020          0.0000
CQUAD4      4172       1     487     486    4026    4023          0.0000
CQUAD4      4173       1     486     485    4029    4026          0.0000
CQUAD4      4174       1     485     484    4032    4029          0.0000
CQUAD4      4175       1     484     483    4035    4032          0.0000
CQUAD4      4176       1     483     482    4038    4035          0.0000
CQUAD4      4177       1     482     481    4041    4038          0.0000
CQUAD4      4178       1     481     480    4044    4041          0.0000
CQUAD4      4179       1     480     479    4047    4044          0.0000
CQUAD4      4180       1     479     478    4050    4047          0.0000
CQUAD4      4181       1     478     477    4053    4050          0.0000
CQUAD4      4182       1     477     476    4056    4053          0.0000
CQUAD4      4183       1     476     475    4059    4056          0.0000
CQUAD4      4184       1     475     474    4062    4059          0.0000
CQUAD4      4185       1     474     473    4065    4062          0.0000
CQUAD4      4186       1     473     472    4068    4065          0.0000
CQUAD4      4187       1     472     471    4071    4068          0.0000
CQUAD4      4188       1     471     470    4074    4071          0.0000
CQUAD4      4189       1     470     469    4077    4074          0.0000
CQUAD4      4190       1     469     468    4080    4077          0.0000
CQUAD4      4191       1     468     467    4083    4080          0.0000
CQUAD4      4192       1     467     466    4086    4083          0.0000
CQUAD4      4193       1     466     465    4089    4086          0.0000
CQUAD4      4194       1     465     464    4092    4089          0.0000
CQUAD4      4195       1     464     463    4095    4092          0.0000
CQUAD4      4196       1     463     462    4098    4095          0.0000
CQUAD4      4197       1     462     461    4101    4098          0.0000
CQUAD4      4198       1     461     460    4104    4101          0.0000
CQUAD4      4199       1     460     459    4107    4104          0.0000
CQUAD4      4200       1     459     458    4110    4107          0.0000
CQUAD4      4201       1     458     457    4113    4110          0.0000
CQUAD4      4202       1     457     456    4116    4113          0.0000
CQUAD4      4203       1     456     455    4119    4116          0.0000
CQUAD4      4204       1     455     454    4122    4119          0.0000
CQUAD4      4205       1     454     453    4125    4122          0.0000
CQUAD4      4206       1     453     452    4128    4125          0.0000
CQUAD4      4207       1     452     451    4131    4128          0.0000
CQUAD4      4208       1     451     450    4134    4131          0.0000
CQUAD4      4209       1     450     449    4137    4134          0.0000
CQUAD4      4210       1     449     448    4140    4137          0.0000
CQUAD4      4211       1     448     447    4143    4140          0.0000
CQUAD4      4212       1     447     446    4146    4143          0.0000
CQUAD4      4213       1     446     445    4149    4146          0.0000
CQUAD4      4214       1     445     444    4152    4149          0.0000
CQUAD4      4215       1     444     443    4155    4152          0.0000
CQUAD4      4216       1     443     442    4158    4155          0.0000
CQUAD4      4217       1     442     441    4161    4158          0.0000
CQUAD4      4218       1     441     440    4164    4161          0.0000
CQUAD4      4219       1     440     439    4167    4164          0.0000
CQUAD4      4220       1     439     438    4170    4167          0.0000
CQUAD4      4221       1     438     437    4173    4170          0.0000
CQUAD4      4222       1     437     436    4176    4173          0.0000
CQUAD4      4223       1     436     435    4179    4176          0.0000
CQUAD4      4224       1     435     434    4182    4179          0.0000
CQUAD4      4225       1     434     433    4185    4182          0.0000
CQUAD4      4226       1     433     432    4188    4185          0.0000
CQUAD4      4227       1     432     431    4191    4188          0.0000
CQUAD4      4228       1     431     430    4194    4191          0.0000
CQUAD4      4229       1     430     429    4197    4194          0.0000
CQUAD4      4230       1     429     428    4200    4197          0.0000
CQUAD4      4231       1     428     427    4203    4200          0.0000
CQUAD4      4232       1     427     426    4206    4203          0.0000
CQUAD4      4233       1     426     425    4209    4206          0.0000
CQUAD4      4234       1     425     424    4212    4209          0.0000
CQUAD4      4235       1     424     423    4215    4212          0.0000
CQUAD4      4236       1     423     422    4218    4215          0.0000
CQUAD4      4237       1     422     421    4221    4218          0.0000
CQUAD4      4238       1     421     420    4224    4221          0.0000
CQUAD4      4239       1     420     419    4227    4224          0.0000
CQUAD4      4240       1     419     418    4230    4227          0.0000
CQUAD4      4241       1     418     417    4233    4230          0.0000
CQUAD4      4242       1     417     416    4236    4233          0.0000
CQUAD4      4243       1     416     415    4239    4236          0.0000
CQUAD4      4244       1     415     414    4242    4239          0.0000
CQUAD4      4245       1     414     413    4245    4242          0.0000
CQUAD4      4246       1     413     412    4248    4245          0.0000
CQUAD4      4247       1     412     411    4251    4248          0.0000
CQUAD4      4248       1     411     410    4254    4251          0.0000
CQUAD4      4249       1     410     409    4257    4254          0.0000
CQUAD4      4250       1     409     408    4260    4257          0.0000
CQUAD4      4251       1     408     407    4263    4260          0.0000
CQUAD4      4252       1     407     406    4266    4263          0.0000
CQUAD4      4253       1     406     405    4269    4266          0.0000
CQUAD4      4254       1     405     404    4272    4269          0.0000
CQUAD4      4255       1     404     403    4275    4272          0.0000
CQUAD4      4256       1     403     402    4278    4275          0.0000
CQUAD4      4257       1     402     401    4281    4278          0.0000
CQUAD4      4258       1     401     400    4284    4281          0.0000
CQUAD4      4259       1     400     399    4287    4284          0.0000
CQUAD4      4260       1     399     398    4290    4287          0.0000
CQUAD4      4261       1     398     397    4293    4290          0.0000
CQUAD4      4262       1     397     396    4296    4293          0.0000
CQUAD4      4263       1     396     395    4299    4296          0.0000
CQUAD4      4264       1     395     394    4302    4299          0.0000
CQUAD4      4265       1     394     393    4305    4302          0.0000
CQUAD4      4266       1     393     392    4308    4305          0.0000
CQUAD4      4267       1     392     391    4311    4308          0.0000
CQUAD4      4268       1     391     390    4314    4311          0.0000
CQUAD4      4269       1     390     389    4317    4314          0.0000
CQUAD4      4270       1     389     388    4320    4317          0.0000
CQUAD4      4271       1     388     387    4323    4320          0.0000
CQUAD4      4272       1     387     386    4326    4323          0.0000
CQUAD4      4273       1     386     385    4329    4326          0.0000
CQUAD4      4274       1     385     384    4332    4329          0.0000
CQUAD4      4275       1     384     383    4335    4332          0.0000
CQUAD4      4276       1     383     382    4338    4335          0.0000
CQUAD4      4277       1     382     381    4341    4338          0.0000
CQUAD4      4278       1     381     380    4344    4341          0.0000
CQUAD4      4279       1     380     379    4347    4344          0.0000
CQUAD4      4280       1     379     378    4350    4347          0.0000
CQUAD4      4281       1     378     377    4353    4350          0.0000
CQUAD4      4282       1     377     376    4356    4353          0.0000
CQUAD4      4283       1     376     375    4359    4356          0.0000
CQUAD4      4284       1     375     374    4362    4359          0.0000
CQUAD4      4285       1     374     373    4365    4362          0.0000
CQUAD4      4286       1     373     372    4368    4365          0.0000
CQUAD4      4287       1     372     371    4371    4368          0.0000
CQUAD4      4288       1     371     370    4374    4371          0.0000
CQUAD4      4289       1     370     369    4377    4374          0.0000
CQUAD4      4290       1     369     368    4380    4377          0.0000
CQUAD4      4291       1     368     367    4383    4380          0.0000
CQUAD4      4292       1     367     366    4386    4383          0.0000
CQUAD4      4293       1     366     365    4389    4386          0.0000
CQUAD4      4294       1     365     364    4392    4389          0.0000
CQUAD4      4295       1     364     363    4395    4392          0.0000
CQUAD4      4296       1     363     362    4398    4395          0.0000
CQUAD4      4297       1     362     361    4401    4398          0.0000
CQUAD4      4298       1     361     360    4404    4401          0.0000
CQUAD4      4299       1     360     359    4407    4404          0.0000
CQUAD4      4300       1     359     358    4410    4407          0.0000
CQUAD4      4301       1     358     357    4413    4410          0.0000
CQUAD4      4302       1     357     356    4416    4413          0.0000
CQUAD4      4303       1     356     355    4419    4416          0.0000
CQUAD4      4304       1     355     354    4422    4419          0.0000
CQUAD4      4305       1     354     353    4425    4422          0.0000
CQUAD4      4306       1     353     352    4428    4425          0.0000
CQUAD4      4307       1     352     351    4431    4428          0.0000
CQUAD4      4308       1     351     350    4434    4431          0.0000
CQUAD4      4309       1     350     349    4437    4434          0.0000
CQUAD4      4310       1     349     348    4440    4437          0.0000
CQUAD4      4311       1     348     347    4443    4440          0.0000
CQUAD4      4312       1     347     346    4446    4443          0.0000
CQUAD4      4313       1     346     345    4449    4446          0.0000
CQUAD4      4314       1     345     344    4452    4449          0.0000
CQUAD4      4315       1     344     343    4455    4452          0.0000
CQUAD4      4316       1     343     342    4458    4455          0.0000
CQUAD4      4317       1     342     341    4461    4458          0.0000
CQUAD4      4318       1     341     340    4464    4461          0.0000
CQUAD4      4319       1     340     339    4467    4464          0.0000
CQUAD4      4320       1     339     338    4470    4467          0.0000
CQUAD4      4321       1     338     337    4473    4470          0.0000
CQUAD4      4322       1     337     336    4476    4473          0.0000
CQUAD4      4323       1     336     335    4479    4476          0.0000
CQUAD4      4324       1     335     334    4482    4479          0.0000
CQUAD4      4325       1     334     333    4485    4482          0.0000
CQUAD4      4326       1     333     332    4488    4485          0.0000
CQUAD4      4327       1     332     331    4491    4488          0.0000
CQUAD4      4328       1     331     330    4494    4491          0.0000
CQUAD4      4329       1     330     329    4497    4494          0.0000
CQUAD4      4330       1     329     662    4503    4497          0.0000
CQUAD4      4331       1    4497    4503    4504    4498          0.0000
CQUAD4      4332       1    4498    4504    4505    4499          0.0000
CQUAD4      4333       1    4499    4505    4671    4669          0.0000
CQUAD4      4334       1    4496    4499    4669    4668          0.0000
CQUAD4      4335       1    4493    4496    4668    4667          0.0000
CQUAD4      4336       1    4490    4493    4667    4666          0.0000
CQUAD4      4337       1    4487    4490    4666    4665          0.0000
CQUAD4      4338       1    4484    4487    4665    4664          0.0000
CQUAD4      4339       1    4481    4484    4664    4663          0.0000
CQUAD4      4340       1    4478    4481    4663    4662          0.0000
CQUAD4      4341       1    4475    4478    4662    4661          0.0000
CQUAD4      4342       1    4472    4475    4661    4660          0.0000
CQUAD4      4343       1    4469    4472    4660    4659          0.0000
CQUAD4      4344       1    4466    4469    4659    4658          0.0000
CQUAD4      4345       1    4463    4466    4658    4657          0.0000
CQUAD4      4346       1    4460    4463    4657    4656          0.0000
CQUAD4      4347       1    4457    4460    4656    4655          0.0000
CQUAD4      4348       1    4454    4457    4655    4654          0.0000
CQUAD4      4349       1    4451    4454    4654    4653          0.0000
CQUAD4      4350       1    4448    4451    4653    4652          0.0000
CQUAD4      4351       1    4445    4448    4652    4651          0.0000
CQUAD4      4352       1    4442    4445    4651    4650          0.0000
CQUAD4      4353       1    4439    4442    4650    4649          0.0000
CQUAD4      4354       1    4436    4439    4649    4648          0.0000
CQUAD4      4355       1    4433    4436    4648    4647          0.0000
CQUAD4      4356       1    4430    4433    4647    4646          0.0000
CQUAD4      4357       1    4427    4430    4646    4645          0.0000
CQUAD4      4358       1    4424    4427    4645    4644          0.0000
CQUAD4      4359       1    4421    4424    4644    4643          0.0000
CQUAD4      4360       1    4418    4421    4643    4642          0.0000
CQUAD4      4361       1    4415    4418    4642    4641          0.0000
CQUAD4      4362       1    4412    4415    4641    4640          0.0000
CQUAD4      4363       1    4409    4412    4640    4639          0.0000
CQUAD4      4364       1    4406    4409    4639    4638          0.0000
CQUAD4      4365       1    4403    4406    4638    4637          0.0000
CQUAD4      4366       1    4400    4403    4637    4636          0.0000
CQUAD4      4367       1    4397    4400    4636    4635          0.0000
CQUAD4      4368       1    4394    4397    4635    4634          0.0000
CQUAD4      4369       1    4391    4394    4634    4633          0.0000
CQUAD4      4370       1    4388    4391    4633    4632          0.0000
CQUAD4      4371       1    4385    4388    4632    4631          0.0000
CQUAD4      4372       1    4382    4385    4631    4630          0.0000
CQUAD4      4373       1    4379    4382    4630    4629          0.0000
CQUAD4      4374       1    4376    4379    4629    4628          0.0000
CQUAD4      4375       1    4373    4376    4628    4627          0.0000
CQUAD4      4376       1    4370    4373    4627    4626          0.0000
CQUAD4      4377       1    4367    4370    4626    4625          0.0000
CQUAD4      4378       1    4364    4367    4625    4624          0.0000
CQUAD4      4379       1    4361    4364    4624    4623          0.0000
CQUAD4      4380       1    4358    4361    4623    4622          0.0000
CQUAD4      4381       1    4355    4358    4622    4621          0.0000
CQUAD4      4382       1    4352    4355    4621    4620          0.0000
CQUAD4      4383       1    4349    4352    4620    4619          0.0000
CQUAD4      4384       1    4346    4349    4619    4618          0.0000
CQUAD4      4385       1    4343    4346    4618    4617          0.0000
CQUAD4      4386       1    4340    4343    4617    4616          0.0000
CQUAD4      4387       1    4337    4340    4616    4615          0.0000
CQUAD4      4388       1    4334    4337    4615    4614          0.0000
CQUAD4      4389       1    4331    4334    4614    4613          0.0000
CQUAD4      4390       1    4328    4331    4613    4612          0.0000
CQUAD4      4391       1    4325    4328    4612    4611          0.0000
CQUAD4      4392       1    4322    4325    4611    4610          0.0000
CQUAD4      4393       1    4319    4322    4610    4609          0.0000
CQUAD4      4394       1    4316    4319    4609    4608          0.0000
CQUAD4      4395       1    4313    4316    4608    4607          0.0000
CQUAD4      4396       1    4310    4313    4607    4606          0.0000
CQUAD4      4397       1    4307    4310    4606    4605          0.0000
CQUAD4      4398       1    4304    4307    4605    4604          0.0000
CQUAD4      4399       1    4301    4304    4604    4603          0.0000
CQUAD4      4400       1    4298    4301    4603    4602          0.0000
CQUAD4      4401       1    4295    4298    4602    4601          0.0000
CQUAD4      4402       1    4292    4295    4601    4600          0.0000
CQUAD4      4403       1    4289    4292    4600    4599          0.0000
CQUAD4      4404       1    4286    4289    4599    4598          0.0000
CQUAD4      4405       1    4283    4286    4598    4597          0.0000
CQUAD4      4406       1    4280    4283    4597    4596          0.0000
CQUAD4      4407       1    4277    4280    4596    4595          0.0000
CQUAD4      4408       1    4274    4277    4595    4594          0.0000
CQUAD4      4409       1    4271    4274    4594    4593          0.0000
CQUAD4      4410       1    4268    4271    4593    4592          0.0000
CQUAD4      4411       1    4265    4268    4592    4591          0.0000
CQUAD4      4412       1    4262    4265    4591    4590          0.0000
CQUAD4      4413       1    4259    4262    4590    4589          0.0000
CQUAD4      4414       1    4256    4259    4589    4588          0.0000
CQUAD4      4415       1    4253    4256    4588    4587          0.0000
CQUAD4      4416       1    4250    4253    4587    4586          0.0000
CQUAD4      4417       1    4247    4250    4586    4585          0.0000
CQUAD4      4418       1    4244    4247    4585    4584          0.0000
CQUAD4      4419       1    4241    4244    4584    4583          0.0000
CQUAD4      4420       1    4238    4241    4583    4582          0.0000
CQUAD4      4421       1    4235    4238    4582    4581          0.0000
CQUAD4      4422       1    4232    4235    4581    4580          0.0000
CQUAD4      4423       1    4229    4232    4580    4579          0.0000
CQUAD4      4424       1    4226    4229    4579    4578          0.0000
CQUAD4      4425       1    4223    4226    4578    4577          0.0000
CQUAD4      4426       1    4220    4223    4577    4576          0.0000
CQUAD4      4427       1    4217    4220    4576    4575          0.0000
CQUAD4      4428       1    4214    4217    4575    4574          0.0000
CQUAD4      4429       1    4211    4214    4574    4573          0.0000
CQUAD4      4430       1    4208    4211    4573    4572          0.0000
CQUAD4      4431       1    4205    4208    4572    4571          0.0000
CQUAD4      4432       1    4202    4205    4571    4570          0.0000
CQUAD4      4433       1    4199    4202    4570    4569          0.0000
CQUAD4      4434       1    4196    4199    4569    4568          0.0000
CQUAD4      4435       1    4193    4196    4568    4567          0.0000
CQUAD4      4436       1    4190    4193    4567    4566          0.0000
CQUAD4      4437       1    4187    4190    4566    4565          0.0000
CQUAD4      4438       1    4184    4187    4565    4564          0.0000
CQUAD4      4439       1    4181    4184    4564    4563          0.0000
CQUAD4      4440       1    4178    4181    4563    4562          0.0000
CQUAD4      4441       1    4175    4178    4562    4561          0.0000
CQUAD4      4442       1    4172    4175    4561    4560          0.0000
CQUAD4      4443       1    4169    4172    4560    4559          0.0000
CQUAD4      4444       1    4166    4169    4559    4558          0.0000
CQUAD4      4445       1    4163    4166    4558    4557          0.0000
CQUAD4      4446       1    4160    4163    4557    4556          0.0000
CQUAD4      4447       1    4157    4160    4556    4555          0.0000
CQUAD4      4448       1    4154    4157    4555    4554          0.0000
CQUAD4      4449       1    4151    4154    4554    4553          0.0000
CQUAD4      4450       1    4148    4151    4553    4552          0.0000
CQUAD4      4451       1    4145    4148    4552    4551          0.0000
CQUAD4      4452       1    4142    4145    4551    4550          0.0000
CQUAD4      4453       1    4139    4142    4550    4549          0.0000
CQUAD4      4454       1    4136    4139    4549    4548          0.0000
CQUAD4      4455       1    4133    4136    4548    4547          0.0000
CQUAD4      4456       1    4130    4133    4547    4546          0.0000
CQUAD4      4457       1    4127    4130    4546    4545          0.0000
CQUAD4      4458       1    4124    4127    4545    4544          0.0000
CQUAD4      4459       1    4121    4124    4544    4543          0.0000
CQUAD4      4460       1    4118    4121    4543    4542          0.0000
CQUAD4      4461       1    4115    4118    4542    4541          0.0000
CQUAD4      4462       1    4112    4115    4541    4540          0.0000
CQUAD4      4463       1    4109    4112    4540    4539          0.0000
CQUAD4      4464       1    4106    4109    4539    4538          0.0000
CQUAD4      4465       1    4103    4106    4538    4537          0.0000
CQUAD4      4466       1    4100    4103    4537    4536          0.0000
CQUAD4      4467       1    4097    4100    4536    4535          0.0000
CQUAD4      4468       1    4094    4097    4535    4534          0.0000
CQUAD4      4469       1    4091    4094    4534    4533          0.0000
CQUAD4      4470       1    4088    4091    4533    4532          0.0000
CQUAD4      4471       1    4085    4088    4532    4531          0.0000
CQUAD4      4472       1    4082    4085    4531    4530          0.0000
CQUAD4      4473       1    4079    4082    4530    4529          0.0000
CQUAD4      4474       1    4076    4079    4529    4528          0.0000
CQUAD4      4475       1    4073    4076    4528    4527          0.0000
CQUAD4      4476       1    4070    4073    4527    4526          0.0000
CQUAD4      4477       1    4067    4070    4526    4525          0.0000
CQUAD4      4478       1    4064    4067    4525    4524          0.0000
CQUAD4      4479       1    4061    4064    4524    4523          0.0000
CQUAD4      4480       1    4058    4061    4523    4522          0.0000
CQUAD4      4481       1    4055    4058    4522    4521          0.0000
CQUAD4      4482       1    4052    4055    4521    4520          0.0000
CQUAD4      4483       1    4049    4052    4520    4519          0.0000
CQUAD4      4484       1    4046    4049    4519    4518          0.0000
CQUAD4      4485       1    4043    4046    4518    4517          0.0000
CQUAD4      4486       1    4040    4043    4517    4516          0.0000
CQUAD4      4487       1    4037    4040    4516    4515          0.0000
CQUAD4      4488       1    4034    4037    4515    4514          0.0000
CQUAD4      4489       1    4031    4034    4514    4513          0.0000
CQUAD4      4490       1    4028    4031    4513    4512          0.0000
CQUAD4      4491       1    4025    4028    4512    4511          0.0000
CQUAD4      4492       1    4022    4025    4511    4510          0.0000
CQUAD4      4493       1    4019    4022    4510    4509          0.0000
CQUAD4      4494       1    4016    4019    4509    4508          0.0000
CQUAD4      4495       1    4013    4016    4508    4507          0.0000
CQUAD4      4496       1    4010    4013    4507    4506          0.0000
CQUAD4      4497       1    4502    4010    4506    4670          0.0000
CQUAD4      4498       1    4501    4009    4010    4502          0.0000
CQUAD4      4499       1    4500    4008    4009    4501          0.0000
$*  NX Mesh Collector: WING
$*  NX Mesh: 2d_mesh(5)
CQUAD4      4500       1    7159    6969    4672    6805          0.0000
CQUAD4      4501       1    6969    6968    4673    4672          0.0000
CQUAD4      4502       1    6968    6967    4674    4673          0.0000
CQUAD4      4503       1    6967    6966    4675    4674          0.0000
CQUAD4      4504       1    6966    6965    4676    4675          0.0000
CQUAD4      4505       1    6965    6964    4677    4676          0.0000
CQUAD4      4506       1    6964    6963    4678    4677          0.0000
CQUAD4      4507       1    6963    6962    4679    4678          0.0000
CQUAD4      4508       1    6962    6961    4680    4679          0.0000
CQUAD4      4509       1    6961    6960    4681    4680          0.0000
CQUAD4      4510       1    6960    6959    4682    4681          0.0000
CQUAD4      4511       1    6959    6958    4683    4682          0.0000
CQUAD4      4512       1    6958    6957    4684    4683          0.0000
CQUAD4      4513       1    6957    6956    4685    4684          0.0000
CQUAD4      4514       1    6956    6955    4686    4685          0.0000
CQUAD4      4515       1    6955    6954    4687    4686          0.0000
CQUAD4      4516       1    6954    6953    4688    4687          0.0000
CQUAD4      4517       1    6953    6952    4689    4688          0.0000
CQUAD4      4518       1    6952    6951    4690    4689          0.0000
CQUAD4      4519       1    6951    6950    4691    4690          0.0000
CQUAD4      4520       1    6950    6949    4692    4691          0.0000
CQUAD4      4521       1    6949    6948    4693    4692          0.0000
CQUAD4      4522       1    6948    6947    4694    4693          0.0000
CQUAD4      4523       1    6947    6946    4695    4694          0.0000
CQUAD4      4524       1    6946    6945    4696    4695          0.0000
CQUAD4      4525       1    6945    6944    4697    4696          0.0000
CQUAD4      4526       1    6944    6943    4698    4697          0.0000
CQUAD4      4527       1    6943    6942    4699    4698          0.0000
CQUAD4      4528       1    6942    6941    4700    4699          0.0000
CQUAD4      4529       1    6941    6940    4701    4700          0.0000
CQUAD4      4530       1    6940    6939    4702    4701          0.0000
CQUAD4      4531       1    6939    6938    4703    4702          0.0000
CQUAD4      4532       1    6938    6937    4704    4703          0.0000
CQUAD4      4533       1    6937    6936    4705    4704          0.0000
CQUAD4      4534       1    6936    6935    4706    4705          0.0000
CQUAD4      4535       1    6935    6934    4707    4706          0.0000
CQUAD4      4536       1    6934    6933    4708    4707          0.0000
CQUAD4      4537       1    6933    6932    4709    4708          0.0000
CQUAD4      4538       1    6932    6931    4710    4709          0.0000
CQUAD4      4539       1    6931    6930    4711    4710          0.0000
CQUAD4      4540       1    6930    6929    4712    4711          0.0000
CQUAD4      4541       1    6929    6928    4713    4712          0.0000
CQUAD4      4542       1    6928    6927    4714    4713          0.0000
CQUAD4      4543       1    6927    6926    4715    4714          0.0000
CQUAD4      4544       1    6926    6925    4716    4715          0.0000
CQUAD4      4545       1    6925    6924    4717    4716          0.0000
CQUAD4      4546       1    6924    6923    4718    4717          0.0000
CQUAD4      4547       1    6923    6922    4719    4718          0.0000
CQUAD4      4548       1    6922    6921    4720    4719          0.0000
CQUAD4      4549       1    6921    6920    4721    4720          0.0000
CQUAD4      4550       1    6920    6919    4722    4721          0.0000
CQUAD4      4551       1    6919    6918    4723    4722          0.0000
CQUAD4      4552       1    6918    6917    4724    4723          0.0000
CQUAD4      4553       1    6917    6916    4725    4724          0.0000
CQUAD4      4554       1    6916    6915    4726    4725          0.0000
CQUAD4      4555       1    6915    6914    4727    4726          0.0000
CQUAD4      4556       1    6914    6913    4728    4727          0.0000
CQUAD4      4557       1    6913    6912    4729    4728          0.0000
CQUAD4      4558       1    6912    6911    4730    4729          0.0000
CQUAD4      4559       1    6911    6910    4731    4730          0.0000
CQUAD4      4560       1    6910    6909    4732    4731          0.0000
CQUAD4      4561       1    6909    6908    4733    4732          0.0000
CQUAD4      4562       1    6908    6907    4734    4733          0.0000
CQUAD4      4563       1    6907    6906    4735    4734          0.0000
CQUAD4      4564       1    6906    6905    4736    4735          0.0000
CQUAD4      4565       1    6905    6904    4737    4736          0.0000
CQUAD4      4566       1    6904    6903    4738    4737          0.0000
CQUAD4      4567       1    6903    6902    4739    4738          0.0000
CQUAD4      4568       1    6902    6901    4740    4739          0.0000
CQUAD4      4569       1    6901    6900    4741    4740          0.0000
CQUAD4      4570       1    6900    6899    4742    4741          0.0000
CQUAD4      4571       1    6899    6898    4743    4742          0.0000
CQUAD4      4572       1    6898    6897    4744    4743          0.0000
CQUAD4      4573       1    6897    6896    4745    4744          0.0000
CQUAD4      4574       1    6896    6895    4746    4745          0.0000
CQUAD4      4575       1    6895    6894    4747    4746          0.0000
CQUAD4      4576       1    6894    6893    4748    4747          0.0000
CQUAD4      4577       1    6893    6892    4749    4748          0.0000
CQUAD4      4578       1    6892    6891    4750    4749          0.0000
CQUAD4      4579       1    6891    6890    4751    4750          0.0000
CQUAD4      4580       1    6890    6889    4752    4751          0.0000
CQUAD4      4581       1    6889    6888    4753    4752          0.0000
CQUAD4      4582       1    6888    6887    4754    4753          0.0000
CQUAD4      4583       1    6887    6886    4755    4754          0.0000
CQUAD4      4584       1    6886    6885    4756    4755          0.0000
CQUAD4      4585       1    6885    6884    4757    4756          0.0000
CQUAD4      4586       1    6884    6883    4758    4757          0.0000
CQUAD4      4587       1    6883    6882    4759    4758          0.0000
CQUAD4      4588       1    6882    6881    4760    4759          0.0000
CQUAD4      4589       1    6881    6880    4761    4760          0.0000
CQUAD4      4590       1    6880    6879    4762    4761          0.0000
CQUAD4      4591       1    6879    6878    4763    4762          0.0000
CQUAD4      4592       1    6878    6877    4764    4763          0.0000
CQUAD4      4593       1    6877    6876    4765    4764          0.0000
CQUAD4      4594       1    6876    6875    4766    4765          0.0000
CQUAD4      4595       1    6875    6874    4767    4766          0.0000
CQUAD4      4596       1    6874    6873    4768    4767          0.0000
CQUAD4      4597       1    6873    6872    4769    4768          0.0000
CQUAD4      4598       1    6872    6871    4770    4769          0.0000
CQUAD4      4599       1    6871    6870    4771    4770          0.0000
CQUAD4      4600       1    6870    6869    4772    4771          0.0000
CQUAD4      4601       1    6869    6868    4773    4772          0.0000
CQUAD4      4602       1    6868    6867    4774    4773          0.0000
CQUAD4      4603       1    6867    6866    4775    4774          0.0000
CQUAD4      4604       1    6866    6865    4776    4775          0.0000
CQUAD4      4605       1    6865    6864    4777    4776          0.0000
CQUAD4      4606       1    6864    6863    4778    4777          0.0000
CQUAD4      4607       1    6863    6862    4779    4778          0.0000
CQUAD4      4608       1    6862    6861    4780    4779          0.0000
CQUAD4      4609       1    6861    6860    4781    4780          0.0000
CQUAD4      4610       1    6860    6859    4782    4781          0.0000
CQUAD4      4611       1    6859    6858    4783    4782          0.0000
CQUAD4      4612       1    6858    6857    4784    4783          0.0000
CQUAD4      4613       1    6857    6856    4785    4784          0.0000
CQUAD4      4614       1    6856    6855    4786    4785          0.0000
CQUAD4      4615       1    6855    6854    4787    4786          0.0000
CQUAD4      4616       1    6854    6853    4788    4787          0.0000
CQUAD4      4617       1    6853    6852    4789    4788          0.0000
CQUAD4      4618       1    6852    6851    4790    4789          0.0000
CQUAD4      4619       1    6851    6850    4791    4790          0.0000
CQUAD4      4620       1    6850    6849    4792    4791          0.0000
CQUAD4      4621       1    6849    6848    4793    4792          0.0000
CQUAD4      4622       1    6848    6847    4794    4793          0.0000
CQUAD4      4623       1    6847    6846    4795    4794          0.0000
CQUAD4      4624       1    6846    6845    4796    4795          0.0000
CQUAD4      4625       1    6845    6844    4797    4796          0.0000
CQUAD4      4626       1    6844    6843    4798    4797          0.0000
CQUAD4      4627       1    6843    6842    4799    4798          0.0000
CQUAD4      4628       1    6842    6841    4800    4799          0.0000
CQUAD4      4629       1    6841    6840    4801    4800          0.0000
CQUAD4      4630       1    6840    6839    4802    4801          0.0000
CQUAD4      4631       1    6839    6838    4803    4802          0.0000
CQUAD4      4632       1    6838    6837    4804    4803          0.0000
CQUAD4      4633       1    6837    6836    4805    4804          0.0000
CQUAD4      4634       1    6836    6835    4806    4805          0.0000
CQUAD4      4635       1    6835    6834    4807    4806          0.0000
CQUAD4      4636       1    6834    6833    4808    4807          0.0000
CQUAD4      4637       1    6833    6832    4809    4808          0.0000
CQUAD4      4638       1    6832    6831    4810    4809          0.0000
CQUAD4      4639       1    6831    6830    4811    4810          0.0000
CQUAD4      4640       1    6830    6829    4812    4811          0.0000
CQUAD4      4641       1    6829    6828    4813    4812          0.0000
CQUAD4      4642       1    6828    6827    4814    4813          0.0000
CQUAD4      4643       1    6827    6826    4815    4814          0.0000
CQUAD4      4644       1    6826    6825    4816    4815          0.0000
CQUAD4      4645       1    6825    6824    4817    4816          0.0000
CQUAD4      4646       1    6824    6823    4818    4817          0.0000
CQUAD4      4647       1    6823    6822    4819    4818          0.0000
CQUAD4      4648       1    6822    6821    4820    4819          0.0000
CQUAD4      4649       1    6821    6820    4821    4820          0.0000
CQUAD4      4650       1    6820    6819    4822    4821          0.0000
CQUAD4      4651       1    6819    6818    4823    4822          0.0000
CQUAD4      4652       1    6818    6817    4824    4823          0.0000
CQUAD4      4653       1    6817    6816    4825    4824          0.0000
CQUAD4      4654       1    6816    6815    4826    4825          0.0000
CQUAD4      4655       1    6815    6814    4827    4826          0.0000
CQUAD4      4656       1    6814    6813    4828    4827          0.0000
CQUAD4      4657       1    6813    6812    4829    4828          0.0000
CQUAD4      4658       1    6812    6811    4830    4829          0.0000
CQUAD4      4659       1    6811    6810    4831    4830          0.0000
CQUAD4      4660       1    6810    6809    4832    4831          0.0000
CQUAD4      4661       1    6809    6808    4833    4832          0.0000
CQUAD4      4662       1    6808    6807    4834    4833          0.0000
CQUAD4      4663       1    6807    6806    4835    4834          0.0000
CQUAD4      4664       1    6806    7158    6804    4835          0.0000
CQUAD4      4665       1    4835    6804    4002    3643          0.0000
CQUAD4      4666       1    4834    4835    3643    3642          0.0000
CQUAD4      4667       1    4833    4834    3642    3641          0.0000
CQUAD4      4668       1    4832    4833    3641    3640          0.0000
CQUAD4      4669       1    4831    4832    3640    3639          0.0000
CQUAD4      4670       1    4830    4831    3639    3638          0.0000
CQUAD4      4671       1    4829    4830    3638    3637          0.0000
CQUAD4      4672       1    4828    4829    3637    3636          0.0000
CQUAD4      4673       1    4827    4828    3636    3635          0.0000
CQUAD4      4674       1    4826    4827    3635    3634          0.0000
CQUAD4      4675       1    4825    4826    3634    3633          0.0000
CQUAD4      4676       1    4824    4825    3633    3632          0.0000
CQUAD4      4677       1    4823    4824    3632    3631          0.0000
CQUAD4      4678       1    4822    4823    3631    3630          0.0000
CQUAD4      4679       1    4821    4822    3630    3629          0.0000
CQUAD4      4680       1    4820    4821    3629    3628          0.0000
CQUAD4      4681       1    4819    4820    3628    3627          0.0000
CQUAD4      4682       1    4818    4819    3627    3626          0.0000
CQUAD4      4683       1    4817    4818    3626    3625          0.0000
CQUAD4      4684       1    4816    4817    3625    3624          0.0000
CQUAD4      4685       1    4815    4816    3624    3623          0.0000
CQUAD4      4686       1    4814    4815    3623    3622          0.0000
CQUAD4      4687       1    4813    4814    3622    3621          0.0000
CQUAD4      4688       1    4812    4813    3621    3620          0.0000
CQUAD4      4689       1    4811    4812    3620    3619          0.0000
CQUAD4      4690       1    4810    4811    3619    3618          0.0000
CQUAD4      4691       1    4809    4810    3618    3617          0.0000
CQUAD4      4692       1    4808    4809    3617    3616          0.0000
CQUAD4      4693       1    4807    4808    3616    3615          0.0000
CQUAD4      4694       1    4806    4807    3615    3614          0.0000
CQUAD4      4695       1    4805    4806    3614    3613          0.0000
CQUAD4      4696       1    4804    4805    3613    3612          0.0000
CQUAD4      4697       1    4803    4804    3612    3611          0.0000
CQUAD4      4698       1    4802    4803    3611    3610          0.0000
CQUAD4      4699       1    4801    4802    3610    3609          0.0000
CQUAD4      4700       1    4800    4801    3609    3608          0.0000
CQUAD4      4701       1    4799    4800    3608    3607          0.0000
CQUAD4      4702       1    4798    4799    3607    3606          0.0000
CQUAD4      4703       1    4797    4798    3606    3605          0.0000
CQUAD4      4704       1    4796    4797    3605    3604          0.0000
CQUAD4      4705       1    4795    4796    3604    3603          0.0000
CQUAD4      4706       1    4794    4795    3603    3602          0.0000
CQUAD4      4707       1    4793    4794    3602    3601          0.0000
CQUAD4      4708       1    4792    4793    3601    3600          0.0000
CQUAD4      4709       1    4791    4792    3600    3599          0.0000
CQUAD4      4710       1    4790    4791    3599    3598          0.0000
CQUAD4      4711       1    4789    4790    3598    3597          0.0000
CQUAD4      4712       1    4788    4789    3597    3596          0.0000
CQUAD4      4713       1    4787    4788    3596    3595          0.0000
CQUAD4      4714       1    4786    4787    3595    3594          0.0000
CQUAD4      4715       1    4785    4786    3594    3593          0.0000
CQUAD4      4716       1    4784    4785    3593    3592          0.0000
CQUAD4      4717       1    4783    4784    3592    3591          0.0000
CQUAD4      4718       1    4782    4783    3591    3590          0.0000
CQUAD4      4719       1    4781    4782    3590    3589          0.0000
CQUAD4      4720       1    4780    4781    3589    3588          0.0000
CQUAD4      4721       1    4779    4780    3588    3587          0.0000
CQUAD4      4722       1    4778    4779    3587    3586          0.0000
CQUAD4      4723       1    4777    4778    3586    3585          0.0000
CQUAD4      4724       1    4776    4777    3585    3584          0.0000
CQUAD4      4725       1    4775    4776    3584    3583          0.0000
CQUAD4      4726       1    4774    4775    3583    3582          0.0000
CQUAD4      4727       1    4773    4774    3582    3581          0.0000
CQUAD4      4728       1    4772    4773    3581    3580          0.0000
CQUAD4      4729       1    4771    4772    3580    3579          0.0000
CQUAD4      4730       1    4770    4771    3579    3578          0.0000
CQUAD4      4731       1    4769    4770    3578    3577          0.0000
CQUAD4      4732       1    4768    4769    3577    3576          0.0000
CQUAD4      4733       1    4767    4768    3576    3575          0.0000
CQUAD4      4734       1    4766    4767    3575    3574          0.0000
CQUAD4      4735       1    4765    4766    3574    3573          0.0000
CQUAD4      4736       1    4764    4765    3573    3572          0.0000
CQUAD4      4737       1    4763    4764    3572    3571          0.0000
CQUAD4      4738       1    4762    4763    3571    3570          0.0000
CQUAD4      4739       1    4761    4762    3570    3569          0.0000
CQUAD4      4740       1    4760    4761    3569    3568          0.0000
CQUAD4      4741       1    4759    4760    3568    3567          0.0000
CQUAD4      4742       1    4758    4759    3567    3566          0.0000
CQUAD4      4743       1    4757    4758    3566    3565          0.0000
CQUAD4      4744       1    4756    4757    3565    3564          0.0000
CQUAD4      4745       1    4755    4756    3564    3563          0.0000
CQUAD4      4746       1    4754    4755    3563    3562          0.0000
CQUAD4      4747       1    4753    4754    3562    3561          0.0000
CQUAD4      4748       1    4752    4753    3561    3560          0.0000
CQUAD4      4749       1    4751    4752    3560    3559          0.0000
CQUAD4      4750       1    4750    4751    3559    3558          0.0000
CQUAD4      4751       1    4749    4750    3558    3557          0.0000
CQUAD4      4752       1    4748    4749    3557    3556          0.0000
CQUAD4      4753       1    4747    4748    3556    3555          0.0000
CQUAD4      4754       1    4746    4747    3555    3554          0.0000
CQUAD4      4755       1    4745    4746    3554    3553          0.0000
CQUAD4      4756       1    4744    4745    3553    3552          0.0000
CQUAD4      4757       1    4743    4744    3552    3551          0.0000
CQUAD4      4758       1    4742    4743    3551    3550          0.0000
CQUAD4      4759       1    4741    4742    3550    3549          0.0000
CQUAD4      4760       1    4740    4741    3549    3548          0.0000
CQUAD4      4761       1    4739    4740    3548    3547          0.0000
CQUAD4      4762       1    4738    4739    3547    3546          0.0000
CQUAD4      4763       1    4737    4738    3546    3545          0.0000
CQUAD4      4764       1    4736    4737    3545    3544          0.0000
CQUAD4      4765       1    4735    4736    3544    3543          0.0000
CQUAD4      4766       1    4734    4735    3543    3542          0.0000
CQUAD4      4767       1    4733    4734    3542    3541          0.0000
CQUAD4      4768       1    4732    4733    3541    3540          0.0000
CQUAD4      4769       1    4731    4732    3540    3539          0.0000
CQUAD4      4770       1    4730    4731    3539    3538          0.0000
CQUAD4      4771       1    4729    4730    3538    3537          0.0000
CQUAD4      4772       1    4728    4729    3537    3536          0.0000
CQUAD4      4773       1    4727    4728    3536    3535          0.0000
CQUAD4      4774       1    4726    4727    3535    3534          0.0000
CQUAD4      4775       1    4725    4726    3534    3533          0.0000
CQUAD4      4776       1    4724    4725    3533    3532          0.0000
CQUAD4      4777       1    4723    4724    3532    3531          0.0000
CQUAD4      4778       1    4722    4723    3531    3530          0.0000
CQUAD4      4779       1    4721    4722    3530    3529          0.0000
CQUAD4      4780       1    4720    4721    3529    3528          0.0000
CQUAD4      4781       1    4719    4720    3528    3527          0.0000
CQUAD4      4782       1    4718    4719    3527    3526          0.0000
CQUAD4      4783       1    4717    4718    3526    3525          0.0000
CQUAD4      4784       1    4716    4717    3525    3524          0.0000
CQUAD4      4785       1    4715    4716    3524    3523          0.0000
CQUAD4      4786       1    4714    4715    3523    3522          0.0000
CQUAD4      4787       1    4713    4714    3522    3521          0.0000
CQUAD4      4788       1    4712    4713    3521    3520          0.0000
CQUAD4      4789       1    4711    4712    3520    3519          0.0000
CQUAD4      4790       1    4710    4711    3519    3518          0.0000
CQUAD4      4791       1    4709    4710    3518    3517          0.0000
CQUAD4      4792       1    4708    4709    3517    3516          0.0000
CQUAD4      4793       1    4707    4708    3516    3515          0.0000
CQUAD4      4794       1    4706    4707    3515    3514          0.0000
CQUAD4      4795       1    4705    4706    3514    3513          0.0000
CQUAD4      4796       1    4704    4705    3513    3512          0.0000
CQUAD4      4797       1    4703    4704    3512    3511          0.0000
CQUAD4      4798       1    4702    4703    3511    3510          0.0000
CQUAD4      4799       1    4701    4702    3510    3509          0.0000
CQUAD4      4800       1    4700    4701    3509    3508          0.0000
CQUAD4      4801       1    4699    4700    3508    3507          0.0000
CQUAD4      4802       1    4698    4699    3507    3506          0.0000
CQUAD4      4803       1    4697    4698    3506    3505          0.0000
CQUAD4      4804       1    4696    4697    3505    3504          0.0000
CQUAD4      4805       1    4695    4696    3504    3503          0.0000
CQUAD4      4806       1    4694    4695    3503    3502          0.0000
CQUAD4      4807       1    4693    4694    3502    3501          0.0000
CQUAD4      4808       1    4692    4693    3501    3500          0.0000
CQUAD4      4809       1    4691    4692    3500    3499          0.0000
CQUAD4      4810       1    4690    4691    3499    3498          0.0000
CQUAD4      4811       1    4689    4690    3498    3497          0.0000
CQUAD4      4812       1    4688    4689    3497    3496          0.0000
CQUAD4      4813       1    4687    4688    3496    3495          0.0000
CQUAD4      4814       1    4686    4687    3495    3494          0.0000
CQUAD4      4815       1    4685    4686    3494    3493          0.0000
CQUAD4      4816       1    4684    4685    3493    3492          0.0000
CQUAD4      4817       1    4683    4684    3492    3491          0.0000
CQUAD4      4818       1    4682    4683    3491    3490          0.0000
CQUAD4      4819       1    4681    4682    3490    3489          0.0000
CQUAD4      4820       1    4680    4681    3489    3488          0.0000
CQUAD4      4821       1    4679    4680    3488    3487          0.0000
CQUAD4      4822       1    4678    4679    3487    3486          0.0000
CQUAD4      4823       1    4677    4678    3486    3485          0.0000
CQUAD4      4824       1    4676    4677    3485    3484          0.0000
CQUAD4      4825       1    4675    4676    3484    3483          0.0000
CQUAD4      4826       1    4674    4675    3483    3482          0.0000
CQUAD4      4827       1    4673    4674    3482    3481          0.0000
CQUAD4      4828       1    4672    4673    3481    3480          0.0000
CQUAD4      4829       1    6805    4672    3480    4003          0.0000
CQUAD4      4830       1    4836    4843    4844    4837          0.0000
CQUAD4      4831       1    4837    4844    4845    4838          0.0000
CQUAD4      4832       1    4838    4845    4846    4839          0.0000
CQUAD4      4833       1    4839    4846    4847    4840          0.0000
CQUAD4      4834       1    4840    4847    4848    4841          0.0000
CQUAD4      4835       1    4841    4848    4849    4842          0.0000
CQUAD4      4836       1    4843    4850    4851    4844          0.0000
CQUAD4      4837       1    4844    4851    4852    4845          0.0000
CQUAD4      4838       1    4845    4852    4853    4846          0.0000
CQUAD4      4839       1    4846    4853    4854    4847          0.0000
CQUAD4      4840       1    4847    4854    4855    4848          0.0000
CQUAD4      4841       1    4848    4855    4856    4849          0.0000
CQUAD4      4842       1    4850    4857    4858    4851          0.0000
CQUAD4      4843       1    4851    4858    4859    4852          0.0000
CQUAD4      4844       1    4852    4859    4860    4853          0.0000
CQUAD4      4845       1    4853    4860    4861    4854          0.0000
CQUAD4      4846       1    4854    4861    4862    4855          0.0000
CQUAD4      4847       1    4855    4862    4863    4856          0.0000
CQUAD4      4848       1    4857    4864    4865    4858          0.0000
CQUAD4      4849       1    4858    4865    4866    4859          0.0000
CQUAD4      4850       1    4859    4866    4867    4860          0.0000
CQUAD4      4851       1    4860    4867    4868    4861          0.0000
CQUAD4      4852       1    4861    4868    4869    4862          0.0000
CQUAD4      4853       1    4862    4869    4870    4863          0.0000
CQUAD4      4854       1    4864    4871    4872    4865          0.0000
CQUAD4      4855       1    4865    4872    4873    4866          0.0000
CQUAD4      4856       1    4866    4873    4874    4867          0.0000
CQUAD4      4857       1    4867    4874    4875    4868          0.0000
CQUAD4      4858       1    4868    4875    4876    4869          0.0000
CQUAD4      4859       1    4869    4876    4877    4870          0.0000
CQUAD4      4860       1    4871    4878    4879    4872          0.0000
CQUAD4      4861       1    4872    4879    4880    4873          0.0000
CQUAD4      4862       1    4873    4880    4881    4874          0.0000
CQUAD4      4863       1    4874    4881    4882    4875          0.0000
CQUAD4      4864       1    4875    4882    4883    4876          0.0000
CQUAD4      4865       1    4876    4883    4884    4877          0.0000
CQUAD4      4866       1    4878    4885    4886    4879          0.0000
CQUAD4      4867       1    4879    4886    4887    4880          0.0000
CQUAD4      4868       1    4880    4887    4888    4881          0.0000
CQUAD4      4869       1    4881    4888    4889    4882          0.0000
CQUAD4      4870       1    4882    4889    4890    4883          0.0000
CQUAD4      4871       1    4883    4890    4891    4884          0.0000
CQUAD4      4872       1    4885    4892    4893    4886          0.0000
CQUAD4      4873       1    4886    4893    4894    4887          0.0000
CQUAD4      4874       1    4887    4894    4895    4888          0.0000
CQUAD4      4875       1    4888    4895    4896    4889          0.0000
CQUAD4      4876       1    4889    4896    4897    4890          0.0000
CQUAD4      4877       1    4890    4897    4898    4891          0.0000
CQUAD4      4878       1    4892    4899    4900    4893          0.0000
CQUAD4      4879       1    4893    4900    4901    4894          0.0000
CQUAD4      4880       1    4894    4901    4902    4895          0.0000
CQUAD4      4881       1    4895    4902    4903    4896          0.0000
CQUAD4      4882       1    4896    4903    4904    4897          0.0000
CQUAD4      4883       1    4897    4904    4905    4898          0.0000
CQUAD4      4884       1    4899    4906    4907    4900          0.0000
CQUAD4      4885       1    4900    4907    4908    4901          0.0000
CQUAD4      4886       1    4901    4908    4909    4902          0.0000
CQUAD4      4887       1    4902    4909    4910    4903          0.0000
CQUAD4      4888       1    4903    4910    4911    4904          0.0000
CQUAD4      4889       1    4904    4911    4912    4905          0.0000
CQUAD4      4890       1    4906    4913    4914    4907          0.0000
CQUAD4      4891       1    4907    4914    4915    4908          0.0000
CQUAD4      4892       1    4908    4915    4916    4909          0.0000
CQUAD4      4893       1    4909    4916    4917    4910          0.0000
CQUAD4      4894       1    4910    4917    4918    4911          0.0000
CQUAD4      4895       1    4911    4918    4919    4912          0.0000
CQUAD4      4896       1    4913    4920    4921    4914          0.0000
CQUAD4      4897       1    4914    4921    4922    4915          0.0000
CQUAD4      4898       1    4915    4922    4923    4916          0.0000
CQUAD4      4899       1    4916    4923    4924    4917          0.0000
CQUAD4      4900       1    4917    4924    4925    4918          0.0000
CQUAD4      4901       1    4918    4925    4926    4919          0.0000
CQUAD4      4902       1    4920    4927    4928    4921          0.0000
CQUAD4      4903       1    4921    4928    4929    4922          0.0000
CQUAD4      4904       1    4922    4929    4930    4923          0.0000
CQUAD4      4905       1    4923    4930    4931    4924          0.0000
CQUAD4      4906       1    4924    4931    4932    4925          0.0000
CQUAD4      4907       1    4925    4932    4933    4926          0.0000
CQUAD4      4908       1    4927    4934    4935    4928          0.0000
CQUAD4      4909       1    4928    4935    4936    4929          0.0000
CQUAD4      4910       1    4929    4936    4937    4930          0.0000
CQUAD4      4911       1    4930    4937    4938    4931          0.0000
CQUAD4      4912       1    4931    4938    4939    4932          0.0000
CQUAD4      4913       1    4932    4939    4940    4933          0.0000
CQUAD4      4914       1    4934    4941    4942    4935          0.0000
CQUAD4      4915       1    4935    4942    4943    4936          0.0000
CQUAD4      4916       1    4936    4943    4944    4937          0.0000
CQUAD4      4917       1    4937    4944    4945    4938          0.0000
CQUAD4      4918       1    4938    4945    4946    4939          0.0000
CQUAD4      4919       1    4939    4946    4947    4940          0.0000
CQUAD4      4920       1    4941    4948    4949    4942          0.0000
CQUAD4      4921       1    4942    4949    4950    4943          0.0000
CQUAD4      4922       1    4943    4950    4951    4944          0.0000
CQUAD4      4923       1    4944    4951    4952    4945          0.0000
CQUAD4      4924       1    4945    4952    4953    4946          0.0000
CQUAD4      4925       1    4946    4953    4954    4947          0.0000
CQUAD4      4926       1    4948    4955    4956    4949          0.0000
CQUAD4      4927       1    4949    4956    4957    4950          0.0000
CQUAD4      4928       1    4950    4957    4958    4951          0.0000
CQUAD4      4929       1    4951    4958    4959    4952          0.0000
CQUAD4      4930       1    4952    4959    4960    4953          0.0000
CQUAD4      4931       1    4953    4960    4961    4954          0.0000
CQUAD4      4932       1    4955    4962    4963    4956          0.0000
CQUAD4      4933       1    4956    4963    4964    4957          0.0000
CQUAD4      4934       1    4957    4964    4965    4958          0.0000
CQUAD4      4935       1    4958    4965    4966    4959          0.0000
CQUAD4      4936       1    4959    4966    4967    4960          0.0000
CQUAD4      4937       1    4960    4967    4968    4961          0.0000
CQUAD4      4938       1    4962    4969    4970    4963          0.0000
CQUAD4      4939       1    4963    4970    4971    4964          0.0000
CQUAD4      4940       1    4964    4971    4972    4965          0.0000
CQUAD4      4941       1    4965    4972    4973    4966          0.0000
CQUAD4      4942       1    4966    4973    4974    4967          0.0000
CQUAD4      4943       1    4967    4974    4975    4968          0.0000
CQUAD4      4944       1    4969    4976    4977    4970          0.0000
CQUAD4      4945       1    4970    4977    4978    4971          0.0000
CQUAD4      4946       1    4971    4978    4979    4972          0.0000
CQUAD4      4947       1    4972    4979    4980    4973          0.0000
CQUAD4      4948       1    4973    4980    4981    4974          0.0000
CQUAD4      4949       1    4974    4981    4982    4975          0.0000
CQUAD4      4950       1    4976    4983    4984    4977          0.0000
CQUAD4      4951       1    4977    4984    4985    4978          0.0000
CQUAD4      4952       1    4978    4985    4986    4979          0.0000
CQUAD4      4953       1    4979    4986    4987    4980          0.0000
CQUAD4      4954       1    4980    4987    4988    4981          0.0000
CQUAD4      4955       1    4981    4988    4989    4982          0.0000
CQUAD4      4956       1    4983    4990    4991    4984          0.0000
CQUAD4      4957       1    4984    4991    4992    4985          0.0000
CQUAD4      4958       1    4985    4992    4993    4986          0.0000
CQUAD4      4959       1    4986    4993    4994    4987          0.0000
CQUAD4      4960       1    4987    4994    4995    4988          0.0000
CQUAD4      4961       1    4988    4995    4996    4989          0.0000
CQUAD4      4962       1    4990    4997    4998    4991          0.0000
CQUAD4      4963       1    4991    4998    4999    4992          0.0000
CQUAD4      4964       1    4992    4999    5000    4993          0.0000
CQUAD4      4965       1    4993    5000    5001    4994          0.0000
CQUAD4      4966       1    4994    5001    5002    4995          0.0000
CQUAD4      4967       1    4995    5002    5003    4996          0.0000
CQUAD4      4968       1    4997    5004    5005    4998          0.0000
CQUAD4      4969       1    4998    5005    5006    4999          0.0000
CQUAD4      4970       1    4999    5006    5007    5000          0.0000
CQUAD4      4971       1    5000    5007    5008    5001          0.0000
CQUAD4      4972       1    5001    5008    5009    5002          0.0000
CQUAD4      4973       1    5002    5009    5010    5003          0.0000
CQUAD4      4974       1    5004    5011    5012    5005          0.0000
CQUAD4      4975       1    5005    5012    5013    5006          0.0000
CQUAD4      4976       1    5006    5013    5014    5007          0.0000
CQUAD4      4977       1    5007    5014    5015    5008          0.0000
CQUAD4      4978       1    5008    5015    5016    5009          0.0000
CQUAD4      4979       1    5009    5016    5017    5010          0.0000
CQUAD4      4980       1    5011    5018    5019    5012          0.0000
CQUAD4      4981       1    5012    5019    5020    5013          0.0000
CQUAD4      4982       1    5013    5020    5021    5014          0.0000
CQUAD4      4983       1    5014    5021    5022    5015          0.0000
CQUAD4      4984       1    5015    5022    5023    5016          0.0000
CQUAD4      4985       1    5016    5023    5024    5017          0.0000
CQUAD4      4986       1    5018    5025    5026    5019          0.0000
CQUAD4      4987       1    5019    5026    5027    5020          0.0000
CQUAD4      4988       1    5020    5027    5028    5021          0.0000
CQUAD4      4989       1    5021    5028    5029    5022          0.0000
CQUAD4      4990       1    5022    5029    5030    5023          0.0000
CQUAD4      4991       1    5023    5030    5031    5024          0.0000
CQUAD4      4992       1    5025    5032    5033    5026          0.0000
CQUAD4      4993       1    5026    5033    5034    5027          0.0000
CQUAD4      4994       1    5027    5034    5035    5028          0.0000
CQUAD4      4995       1    5028    5035    5036    5029          0.0000
CQUAD4      4996       1    5029    5036    5037    5030          0.0000
CQUAD4      4997       1    5030    5037    5038    5031          0.0000
CQUAD4      4998       1    5032    5039    5040    5033          0.0000
CQUAD4      4999       1    5033    5040    5041    5034          0.0000
CQUAD4      5000       1    5034    5041    5042    5035          0.0000
CQUAD4      5001       1    5035    5042    5043    5036          0.0000
CQUAD4      5002       1    5036    5043    5044    5037          0.0000
CQUAD4      5003       1    5037    5044    5045    5038          0.0000
CQUAD4      5004       1    5039    5046    5047    5040          0.0000
CQUAD4      5005       1    5040    5047    5048    5041          0.0000
CQUAD4      5006       1    5041    5048    5049    5042          0.0000
CQUAD4      5007       1    5042    5049    5050    5043          0.0000
CQUAD4      5008       1    5043    5050    5051    5044          0.0000
CQUAD4      5009       1    5044    5051    5052    5045          0.0000
CQUAD4      5010       1    5046    5053    5054    5047          0.0000
CQUAD4      5011       1    5047    5054    5055    5048          0.0000
CQUAD4      5012       1    5048    5055    5056    5049          0.0000
CQUAD4      5013       1    5049    5056    5057    5050          0.0000
CQUAD4      5014       1    5050    5057    5058    5051          0.0000
CQUAD4      5015       1    5051    5058    5059    5052          0.0000
CQUAD4      5016       1    5053    5060    5061    5054          0.0000
CQUAD4      5017       1    5054    5061    5062    5055          0.0000
CQUAD4      5018       1    5055    5062    5063    5056          0.0000
CQUAD4      5019       1    5056    5063    5064    5057          0.0000
CQUAD4      5020       1    5057    5064    5065    5058          0.0000
CQUAD4      5021       1    5058    5065    5066    5059          0.0000
CQUAD4      5022       1    5060    5067    5068    5061          0.0000
CQUAD4      5023       1    5061    5068    5069    5062          0.0000
CQUAD4      5024       1    5062    5069    5070    5063          0.0000
CQUAD4      5025       1    5063    5070    5071    5064          0.0000
CQUAD4      5026       1    5064    5071    5072    5065          0.0000
CQUAD4      5027       1    5065    5072    5073    5066          0.0000
CQUAD4      5028       1    5067    5074    5075    5068          0.0000
CQUAD4      5029       1    5068    5075    5076    5069          0.0000
CQUAD4      5030       1    5069    5076    5077    5070          0.0000
CQUAD4      5031       1    5070    5077    5078    5071          0.0000
CQUAD4      5032       1    5071    5078    5079    5072          0.0000
CQUAD4      5033       1    5072    5079    5080    5073          0.0000
CQUAD4      5034       1    5074    5081    5082    5075          0.0000
CQUAD4      5035       1    5075    5082    5083    5076          0.0000
CQUAD4      5036       1    5076    5083    5084    5077          0.0000
CQUAD4      5037       1    5077    5084    5085    5078          0.0000
CQUAD4      5038       1    5078    5085    5086    5079          0.0000
CQUAD4      5039       1    5079    5086    5087    5080          0.0000
CQUAD4      5040       1    5081    5088    5089    5082          0.0000
CQUAD4      5041       1    5082    5089    5090    5083          0.0000
CQUAD4      5042       1    5083    5090    5091    5084          0.0000
CQUAD4      5043       1    5084    5091    5092    5085          0.0000
CQUAD4      5044       1    5085    5092    5093    5086          0.0000
CQUAD4      5045       1    5086    5093    5094    5087          0.0000
CQUAD4      5046       1    5088    5095    5096    5089          0.0000
CQUAD4      5047       1    5089    5096    5097    5090          0.0000
CQUAD4      5048       1    5090    5097    5098    5091          0.0000
CQUAD4      5049       1    5091    5098    5099    5092          0.0000
CQUAD4      5050       1    5092    5099    5100    5093          0.0000
CQUAD4      5051       1    5093    5100    5101    5094          0.0000
CQUAD4      5052       1    5095    5102    5103    5096          0.0000
CQUAD4      5053       1    5096    5103    5104    5097          0.0000
CQUAD4      5054       1    5097    5104    5105    5098          0.0000
CQUAD4      5055       1    5098    5105    5106    5099          0.0000
CQUAD4      5056       1    5099    5106    5107    5100          0.0000
CQUAD4      5057       1    5100    5107    5108    5101          0.0000
CQUAD4      5058       1    5102    5109    5110    5103          0.0000
CQUAD4      5059       1    5103    5110    5111    5104          0.0000
CQUAD4      5060       1    5104    5111    5112    5105          0.0000
CQUAD4      5061       1    5105    5112    5113    5106          0.0000
CQUAD4      5062       1    5106    5113    5114    5107          0.0000
CQUAD4      5063       1    5107    5114    5115    5108          0.0000
CQUAD4      5064       1    5109    5116    5117    5110          0.0000
CQUAD4      5065       1    5110    5117    5118    5111          0.0000
CQUAD4      5066       1    5111    5118    5119    5112          0.0000
CQUAD4      5067       1    5112    5119    5120    5113          0.0000
CQUAD4      5068       1    5113    5120    5121    5114          0.0000
CQUAD4      5069       1    5114    5121    5122    5115          0.0000
CQUAD4      5070       1    5116    5123    5124    5117          0.0000
CQUAD4      5071       1    5117    5124    5125    5118          0.0000
CQUAD4      5072       1    5118    5125    5126    5119          0.0000
CQUAD4      5073       1    5119    5126    5127    5120          0.0000
CQUAD4      5074       1    5120    5127    5128    5121          0.0000
CQUAD4      5075       1    5121    5128    5129    5122          0.0000
CQUAD4      5076       1    5123    5130    5131    5124          0.0000
CQUAD4      5077       1    5124    5131    5132    5125          0.0000
CQUAD4      5078       1    5125    5132    5133    5126          0.0000
CQUAD4      5079       1    5126    5133    5134    5127          0.0000
CQUAD4      5080       1    5127    5134    5135    5128          0.0000
CQUAD4      5081       1    5128    5135    5136    5129          0.0000
CQUAD4      5082       1    5130    5137    5138    5131          0.0000
CQUAD4      5083       1    5131    5138    5139    5132          0.0000
CQUAD4      5084       1    5132    5139    5140    5133          0.0000
CQUAD4      5085       1    5133    5140    5141    5134          0.0000
CQUAD4      5086       1    5134    5141    5142    5135          0.0000
CQUAD4      5087       1    5135    5142    5143    5136          0.0000
CQUAD4      5088       1    5137    5144    5145    5138          0.0000
CQUAD4      5089       1    5138    5145    5146    5139          0.0000
CQUAD4      5090       1    5139    5146    5147    5140          0.0000
CQUAD4      5091       1    5140    5147    5148    5141          0.0000
CQUAD4      5092       1    5141    5148    5149    5142          0.0000
CQUAD4      5093       1    5142    5149    5150    5143          0.0000
CQUAD4      5094       1    5144    5151    5152    5145          0.0000
CQUAD4      5095       1    5145    5152    5153    5146          0.0000
CQUAD4      5096       1    5146    5153    5154    5147          0.0000
CQUAD4      5097       1    5147    5154    5155    5148          0.0000
CQUAD4      5098       1    5148    5155    5156    5149          0.0000
CQUAD4      5099       1    5149    5156    5157    5150          0.0000
CQUAD4      5100       1    5151    5158    5159    5152          0.0000
CQUAD4      5101       1    5152    5159    5160    5153          0.0000
CQUAD4      5102       1    5153    5160    5161    5154          0.0000
CQUAD4      5103       1    5154    5161    5162    5155          0.0000
CQUAD4      5104       1    5155    5162    5163    5156          0.0000
CQUAD4      5105       1    5156    5163    5164    5157          0.0000
CQUAD4      5106       1    5158    5165    5166    5159          0.0000
CQUAD4      5107       1    5159    5166    5167    5160          0.0000
CQUAD4      5108       1    5160    5167    5168    5161          0.0000
CQUAD4      5109       1    5161    5168    5169    5162          0.0000
CQUAD4      5110       1    5162    5169    5170    5163          0.0000
CQUAD4      5111       1    5163    5170    5171    5164          0.0000
CQUAD4      5112       1    5165    5172    5173    5166          0.0000
CQUAD4      5113       1    5166    5173    5174    5167          0.0000
CQUAD4      5114       1    5167    5174    5175    5168          0.0000
CQUAD4      5115       1    5168    5175    5176    5169          0.0000
CQUAD4      5116       1    5169    5176    5177    5170          0.0000
CQUAD4      5117       1    5170    5177    5178    5171          0.0000
CQUAD4      5118       1    5172    5179    5180    5173          0.0000
CQUAD4      5119       1    5173    5180    5181    5174          0.0000
CQUAD4      5120       1    5174    5181    5182    5175          0.0000
CQUAD4      5121       1    5175    5182    5183    5176          0.0000
CQUAD4      5122       1    5176    5183    5184    5177          0.0000
CQUAD4      5123       1    5177    5184    5185    5178          0.0000
CQUAD4      5124       1    5179    5186    5187    5180          0.0000
CQUAD4      5125       1    5180    5187    5188    5181          0.0000
CQUAD4      5126       1    5181    5188    5189    5182          0.0000
CQUAD4      5127       1    5182    5189    5190    5183          0.0000
CQUAD4      5128       1    5183    5190    5191    5184          0.0000
CQUAD4      5129       1    5184    5191    5192    5185          0.0000
CQUAD4      5130       1    5186    5193    5194    5187          0.0000
CQUAD4      5131       1    5187    5194    5195    5188          0.0000
CQUAD4      5132       1    5188    5195    5196    5189          0.0000
CQUAD4      5133       1    5189    5196    5197    5190          0.0000
CQUAD4      5134       1    5190    5197    5198    5191          0.0000
CQUAD4      5135       1    5191    5198    5199    5192          0.0000
CQUAD4      5136       1    5193    5200    5201    5194          0.0000
CQUAD4      5137       1    5194    5201    5202    5195          0.0000
CQUAD4      5138       1    5195    5202    5203    5196          0.0000
CQUAD4      5139       1    5196    5203    5204    5197          0.0000
CQUAD4      5140       1    5197    5204    5205    5198          0.0000
CQUAD4      5141       1    5198    5205    5206    5199          0.0000
CQUAD4      5142       1    5200    5207    5208    5201          0.0000
CQUAD4      5143       1    5201    5208    5209    5202          0.0000
CQUAD4      5144       1    5202    5209    5210    5203          0.0000
CQUAD4      5145       1    5203    5210    5211    5204          0.0000
CQUAD4      5146       1    5204    5211    5212    5205          0.0000
CQUAD4      5147       1    5205    5212    5213    5206          0.0000
CQUAD4      5148       1    5207    5214    5215    5208          0.0000
CQUAD4      5149       1    5208    5215    5216    5209          0.0000
CQUAD4      5150       1    5209    5216    5217    5210          0.0000
CQUAD4      5151       1    5210    5217    5218    5211          0.0000
CQUAD4      5152       1    5211    5218    5219    5212          0.0000
CQUAD4      5153       1    5212    5219    5220    5213          0.0000
CQUAD4      5154       1    5214    5221    5222    5215          0.0000
CQUAD4      5155       1    5215    5222    5223    5216          0.0000
CQUAD4      5156       1    5216    5223    5224    5217          0.0000
CQUAD4      5157       1    5217    5224    5225    5218          0.0000
CQUAD4      5158       1    5218    5225    5226    5219          0.0000
CQUAD4      5159       1    5219    5226    5227    5220          0.0000
CQUAD4      5160       1    5221    5228    5229    5222          0.0000
CQUAD4      5161       1    5222    5229    5230    5223          0.0000
CQUAD4      5162       1    5223    5230    5231    5224          0.0000
CQUAD4      5163       1    5224    5231    5232    5225          0.0000
CQUAD4      5164       1    5225    5232    5233    5226          0.0000
CQUAD4      5165       1    5226    5233    5234    5227          0.0000
CQUAD4      5166       1    5228    5235    5236    5229          0.0000
CQUAD4      5167       1    5229    5236    5237    5230          0.0000
CQUAD4      5168       1    5230    5237    5238    5231          0.0000
CQUAD4      5169       1    5231    5238    5239    5232          0.0000
CQUAD4      5170       1    5232    5239    5240    5233          0.0000
CQUAD4      5171       1    5233    5240    5241    5234          0.0000
CQUAD4      5172       1    5235    5242    5243    5236          0.0000
CQUAD4      5173       1    5236    5243    5244    5237          0.0000
CQUAD4      5174       1    5237    5244    5245    5238          0.0000
CQUAD4      5175       1    5238    5245    5246    5239          0.0000
CQUAD4      5176       1    5239    5246    5247    5240          0.0000
CQUAD4      5177       1    5240    5247    5248    5241          0.0000
CQUAD4      5178       1    5242    5249    5250    5243          0.0000
CQUAD4      5179       1    5243    5250    5251    5244          0.0000
CQUAD4      5180       1    5244    5251    5252    5245          0.0000
CQUAD4      5181       1    5245    5252    5253    5246          0.0000
CQUAD4      5182       1    5246    5253    5254    5247          0.0000
CQUAD4      5183       1    5247    5254    5255    5248          0.0000
CQUAD4      5184       1    5249    5256    5257    5250          0.0000
CQUAD4      5185       1    5250    5257    5258    5251          0.0000
CQUAD4      5186       1    5251    5258    5259    5252          0.0000
CQUAD4      5187       1    5252    5259    5260    5253          0.0000
CQUAD4      5188       1    5253    5260    5261    5254          0.0000
CQUAD4      5189       1    5254    5261    5262    5255          0.0000
CQUAD4      5190       1    5256    5263    5264    5257          0.0000
CQUAD4      5191       1    5257    5264    5265    5258          0.0000
CQUAD4      5192       1    5258    5265    5266    5259          0.0000
CQUAD4      5193       1    5259    5266    5267    5260          0.0000
CQUAD4      5194       1    5260    5267    5268    5261          0.0000
CQUAD4      5195       1    5261    5268    5269    5262          0.0000
CQUAD4      5196       1    5263    5270    5271    5264          0.0000
CQUAD4      5197       1    5264    5271    5272    5265          0.0000
CQUAD4      5198       1    5265    5272    5273    5266          0.0000
CQUAD4      5199       1    5266    5273    5274    5267          0.0000
CQUAD4      5200       1    5267    5274    5275    5268          0.0000
CQUAD4      5201       1    5268    5275    5276    5269          0.0000
CQUAD4      5202       1    5270    5277    5278    5271          0.0000
CQUAD4      5203       1    5271    5278    5279    5272          0.0000
CQUAD4      5204       1    5272    5279    5280    5273          0.0000
CQUAD4      5205       1    5273    5280    5281    5274          0.0000
CQUAD4      5206       1    5274    5281    5282    5275          0.0000
CQUAD4      5207       1    5275    5282    5283    5276          0.0000
CQUAD4      5208       1    5277    5284    5285    5278          0.0000
CQUAD4      5209       1    5278    5285    5286    5279          0.0000
CQUAD4      5210       1    5279    5286    5287    5280          0.0000
CQUAD4      5211       1    5280    5287    5288    5281          0.0000
CQUAD4      5212       1    5281    5288    5289    5282          0.0000
CQUAD4      5213       1    5282    5289    5290    5283          0.0000
CQUAD4      5214       1    5284    5291    5292    5285          0.0000
CQUAD4      5215       1    5285    5292    5293    5286          0.0000
CQUAD4      5216       1    5286    5293    5294    5287          0.0000
CQUAD4      5217       1    5287    5294    5295    5288          0.0000
CQUAD4      5218       1    5288    5295    5296    5289          0.0000
CQUAD4      5219       1    5289    5296    5297    5290          0.0000
CQUAD4      5220       1    5291    5298    5299    5292          0.0000
CQUAD4      5221       1    5292    5299    5300    5293          0.0000
CQUAD4      5222       1    5293    5300    5301    5294          0.0000
CQUAD4      5223       1    5294    5301    5302    5295          0.0000
CQUAD4      5224       1    5295    5302    5303    5296          0.0000
CQUAD4      5225       1    5296    5303    5304    5297          0.0000
CQUAD4      5226       1    5298    5305    5306    5299          0.0000
CQUAD4      5227       1    5299    5306    5307    5300          0.0000
CQUAD4      5228       1    5300    5307    5308    5301          0.0000
CQUAD4      5229       1    5301    5308    5309    5302          0.0000
CQUAD4      5230       1    5302    5309    5310    5303          0.0000
CQUAD4      5231       1    5303    5310    5311    5304          0.0000
CQUAD4      5232       1    5305    5312    5313    5306          0.0000
CQUAD4      5233       1    5306    5313    5314    5307          0.0000
CQUAD4      5234       1    5307    5314    5315    5308          0.0000
CQUAD4      5235       1    5308    5315    5316    5309          0.0000
CQUAD4      5236       1    5309    5316    5317    5310          0.0000
CQUAD4      5237       1    5310    5317    5318    5311          0.0000
CQUAD4      5238       1    5312    5319    5320    5313          0.0000
CQUAD4      5239       1    5313    5320    5321    5314          0.0000
CQUAD4      5240       1    5314    5321    5322    5315          0.0000
CQUAD4      5241       1    5315    5322    5323    5316          0.0000
CQUAD4      5242       1    5316    5323    5324    5317          0.0000
CQUAD4      5243       1    5317    5324    5325    5318          0.0000
CQUAD4      5244       1    5319    5326    5327    5320          0.0000
CQUAD4      5245       1    5320    5327    5328    5321          0.0000
CQUAD4      5246       1    5321    5328    5329    5322          0.0000
CQUAD4      5247       1    5322    5329    5330    5323          0.0000
CQUAD4      5248       1    5323    5330    5331    5324          0.0000
CQUAD4      5249       1    5324    5331    5332    5325          0.0000
CQUAD4      5250       1    5326    5333    5334    5327          0.0000
CQUAD4      5251       1    5327    5334    5335    5328          0.0000
CQUAD4      5252       1    5328    5335    5336    5329          0.0000
CQUAD4      5253       1    5329    5336    5337    5330          0.0000
CQUAD4      5254       1    5330    5337    5338    5331          0.0000
CQUAD4      5255       1    5331    5338    5339    5332          0.0000
CQUAD4      5256       1    5333    5340    5341    5334          0.0000
CQUAD4      5257       1    5334    5341    5342    5335          0.0000
CQUAD4      5258       1    5335    5342    5343    5336          0.0000
CQUAD4      5259       1    5336    5343    5344    5337          0.0000
CQUAD4      5260       1    5337    5344    5345    5338          0.0000
CQUAD4      5261       1    5338    5345    5346    5339          0.0000
CQUAD4      5262       1    5340    5347    5348    5341          0.0000
CQUAD4      5263       1    5341    5348    5349    5342          0.0000
CQUAD4      5264       1    5342    5349    5350    5343          0.0000
CQUAD4      5265       1    5343    5350    5351    5344          0.0000
CQUAD4      5266       1    5344    5351    5352    5345          0.0000
CQUAD4      5267       1    5345    5352    5353    5346          0.0000
CQUAD4      5268       1    5347    5354    5355    5348          0.0000
CQUAD4      5269       1    5348    5355    5356    5349          0.0000
CQUAD4      5270       1    5349    5356    5357    5350          0.0000
CQUAD4      5271       1    5350    5357    5358    5351          0.0000
CQUAD4      5272       1    5351    5358    5359    5352          0.0000
CQUAD4      5273       1    5352    5359    5360    5353          0.0000
CQUAD4      5274       1    5354    5361    5362    5355          0.0000
CQUAD4      5275       1    5355    5362    5363    5356          0.0000
CQUAD4      5276       1    5356    5363    5364    5357          0.0000
CQUAD4      5277       1    5357    5364    5365    5358          0.0000
CQUAD4      5278       1    5358    5365    5366    5359          0.0000
CQUAD4      5279       1    5359    5366    5367    5360          0.0000
CQUAD4      5280       1    5361    5368    5369    5362          0.0000
CQUAD4      5281       1    5362    5369    5370    5363          0.0000
CQUAD4      5282       1    5363    5370    5371    5364          0.0000
CQUAD4      5283       1    5364    5371    5372    5365          0.0000
CQUAD4      5284       1    5365    5372    5373    5366          0.0000
CQUAD4      5285       1    5366    5373    5374    5367          0.0000
CQUAD4      5286       1    5368    5375    5376    5369          0.0000
CQUAD4      5287       1    5369    5376    5377    5370          0.0000
CQUAD4      5288       1    5370    5377    5378    5371          0.0000
CQUAD4      5289       1    5371    5378    5379    5372          0.0000
CQUAD4      5290       1    5372    5379    5380    5373          0.0000
CQUAD4      5291       1    5373    5380    5381    5374          0.0000
CQUAD4      5292       1    5375    5382    5383    5376          0.0000
CQUAD4      5293       1    5376    5383    5384    5377          0.0000
CQUAD4      5294       1    5377    5384    5385    5378          0.0000
CQUAD4      5295       1    5378    5385    5386    5379          0.0000
CQUAD4      5296       1    5379    5386    5387    5380          0.0000
CQUAD4      5297       1    5380    5387    5388    5381          0.0000
CQUAD4      5298       1    5382    5389    5390    5383          0.0000
CQUAD4      5299       1    5383    5390    5391    5384          0.0000
CQUAD4      5300       1    5384    5391    5392    5385          0.0000
CQUAD4      5301       1    5385    5392    5393    5386          0.0000
CQUAD4      5302       1    5386    5393    5394    5387          0.0000
CQUAD4      5303       1    5387    5394    5395    5388          0.0000
CQUAD4      5304       1    5389    5396    5397    5390          0.0000
CQUAD4      5305       1    5390    5397    5398    5391          0.0000
CQUAD4      5306       1    5391    5398    5399    5392          0.0000
CQUAD4      5307       1    5392    5399    5400    5393          0.0000
CQUAD4      5308       1    5393    5400    5401    5394          0.0000
CQUAD4      5309       1    5394    5401    5402    5395          0.0000
CQUAD4      5310       1    5396    5403    5404    5397          0.0000
CQUAD4      5311       1    5397    5404    5405    5398          0.0000
CQUAD4      5312       1    5398    5405    5406    5399          0.0000
CQUAD4      5313       1    5399    5406    5407    5400          0.0000
CQUAD4      5314       1    5400    5407    5408    5401          0.0000
CQUAD4      5315       1    5401    5408    5409    5402          0.0000
CQUAD4      5316       1    5403    5410    5411    5404          0.0000
CQUAD4      5317       1    5404    5411    5412    5405          0.0000
CQUAD4      5318       1    5405    5412    5413    5406          0.0000
CQUAD4      5319       1    5406    5413    5414    5407          0.0000
CQUAD4      5320       1    5407    5414    5415    5408          0.0000
CQUAD4      5321       1    5408    5415    5416    5409          0.0000
CQUAD4      5322       1    5410    5417    5418    5411          0.0000
CQUAD4      5323       1    5411    5418    5419    5412          0.0000
CQUAD4      5324       1    5412    5419    5420    5413          0.0000
CQUAD4      5325       1    5413    5420    5421    5414          0.0000
CQUAD4      5326       1    5414    5421    5422    5415          0.0000
CQUAD4      5327       1    5415    5422    5423    5416          0.0000
CQUAD4      5328       1    5417    5424    5425    5418          0.0000
CQUAD4      5329       1    5418    5425    5426    5419          0.0000
CQUAD4      5330       1    5419    5426    5427    5420          0.0000
CQUAD4      5331       1    5420    5427    5428    5421          0.0000
CQUAD4      5332       1    5421    5428    5429    5422          0.0000
CQUAD4      5333       1    5422    5429    5430    5423          0.0000
CQUAD4      5334       1    5424    5431    5432    5425          0.0000
CQUAD4      5335       1    5425    5432    5433    5426          0.0000
CQUAD4      5336       1    5426    5433    5434    5427          0.0000
CQUAD4      5337       1    5427    5434    5435    5428          0.0000
CQUAD4      5338       1    5428    5435    5436    5429          0.0000
CQUAD4      5339       1    5429    5436    5437    5430          0.0000
CQUAD4      5340       1    5431    5438    5439    5432          0.0000
CQUAD4      5341       1    5432    5439    5440    5433          0.0000
CQUAD4      5342       1    5433    5440    5441    5434          0.0000
CQUAD4      5343       1    5434    5441    5442    5435          0.0000
CQUAD4      5344       1    5435    5442    5443    5436          0.0000
CQUAD4      5345       1    5436    5443    5444    5437          0.0000
CQUAD4      5346       1    5438    5445    5446    5439          0.0000
CQUAD4      5347       1    5439    5446    5447    5440          0.0000
CQUAD4      5348       1    5440    5447    5448    5441          0.0000
CQUAD4      5349       1    5441    5448    5449    5442          0.0000
CQUAD4      5350       1    5442    5449    5450    5443          0.0000
CQUAD4      5351       1    5443    5450    5451    5444          0.0000
CQUAD4      5352       1    5445    5452    5453    5446          0.0000
CQUAD4      5353       1    5446    5453    5454    5447          0.0000
CQUAD4      5354       1    5447    5454    5455    5448          0.0000
CQUAD4      5355       1    5448    5455    5456    5449          0.0000
CQUAD4      5356       1    5449    5456    5457    5450          0.0000
CQUAD4      5357       1    5450    5457    5458    5451          0.0000
CQUAD4      5358       1    5452    5459    5460    5453          0.0000
CQUAD4      5359       1    5453    5460    5461    5454          0.0000
CQUAD4      5360       1    5454    5461    5462    5455          0.0000
CQUAD4      5361       1    5455    5462    5463    5456          0.0000
CQUAD4      5362       1    5456    5463    5464    5457          0.0000
CQUAD4      5363       1    5457    5464    5465    5458          0.0000
CQUAD4      5364       1    5459    5466    5467    5460          0.0000
CQUAD4      5365       1    5460    5467    5468    5461          0.0000
CQUAD4      5366       1    5461    5468    5469    5462          0.0000
CQUAD4      5367       1    5462    5469    5470    5463          0.0000
CQUAD4      5368       1    5463    5470    5471    5464          0.0000
CQUAD4      5369       1    5464    5471    5472    5465          0.0000
CQUAD4      5370       1    5466    5473    5474    5467          0.0000
CQUAD4      5371       1    5467    5474    5475    5468          0.0000
CQUAD4      5372       1    5468    5475    5476    5469          0.0000
CQUAD4      5373       1    5469    5476    5477    5470          0.0000
CQUAD4      5374       1    5470    5477    5478    5471          0.0000
CQUAD4      5375       1    5471    5478    5479    5472          0.0000
CQUAD4      5376       1    5473    5480    5481    5474          0.0000
CQUAD4      5377       1    5474    5481    5482    5475          0.0000
CQUAD4      5378       1    5475    5482    5483    5476          0.0000
CQUAD4      5379       1    5476    5483    5484    5477          0.0000
CQUAD4      5380       1    5477    5484    5485    5478          0.0000
CQUAD4      5381       1    5478    5485    5486    5479          0.0000
CQUAD4      5382       1    5480    5487    5488    5481          0.0000
CQUAD4      5383       1    5481    5488    5489    5482          0.0000
CQUAD4      5384       1    5482    5489    5490    5483          0.0000
CQUAD4      5385       1    5483    5490    5491    5484          0.0000
CQUAD4      5386       1    5484    5491    5492    5485          0.0000
CQUAD4      5387       1    5485    5492    5493    5486          0.0000
CQUAD4      5388       1    5487    5494    5495    5488          0.0000
CQUAD4      5389       1    5488    5495    5496    5489          0.0000
CQUAD4      5390       1    5489    5496    5497    5490          0.0000
CQUAD4      5391       1    5490    5497    5498    5491          0.0000
CQUAD4      5392       1    5491    5498    5499    5492          0.0000
CQUAD4      5393       1    5492    5499    5500    5493          0.0000
CQUAD4      5394       1    5494    5501    5502    5495          0.0000
CQUAD4      5395       1    5495    5502    5503    5496          0.0000
CQUAD4      5396       1    5496    5503    5504    5497          0.0000
CQUAD4      5397       1    5497    5504    5505    5498          0.0000
CQUAD4      5398       1    5498    5505    5506    5499          0.0000
CQUAD4      5399       1    5499    5506    5507    5500          0.0000
CQUAD4      5400       1    5501    5508    5509    5502          0.0000
CQUAD4      5401       1    5502    5509    5510    5503          0.0000
CQUAD4      5402       1    5503    5510    5511    5504          0.0000
CQUAD4      5403       1    5504    5511    5512    5505          0.0000
CQUAD4      5404       1    5505    5512    5513    5506          0.0000
CQUAD4      5405       1    5506    5513    5514    5507          0.0000
CQUAD4      5406       1    5508    5515    5516    5509          0.0000
CQUAD4      5407       1    5509    5516    5517    5510          0.0000
CQUAD4      5408       1    5510    5517    5518    5511          0.0000
CQUAD4      5409       1    5511    5518    5519    5512          0.0000
CQUAD4      5410       1    5512    5519    5520    5513          0.0000
CQUAD4      5411       1    5513    5520    5521    5514          0.0000
CQUAD4      5412       1    5515    5522    5523    5516          0.0000
CQUAD4      5413       1    5516    5523    5524    5517          0.0000
CQUAD4      5414       1    5517    5524    5525    5518          0.0000
CQUAD4      5415       1    5518    5525    5526    5519          0.0000
CQUAD4      5416       1    5519    5526    5527    5520          0.0000
CQUAD4      5417       1    5520    5527    5528    5521          0.0000
CQUAD4      5418       1    5522    5529    5530    5523          0.0000
CQUAD4      5419       1    5523    5530    5531    5524          0.0000
CQUAD4      5420       1    5524    5531    5532    5525          0.0000
CQUAD4      5421       1    5525    5532    5533    5526          0.0000
CQUAD4      5422       1    5526    5533    5534    5527          0.0000
CQUAD4      5423       1    5527    5534    5535    5528          0.0000
CQUAD4      5424       1    5529    5536    5537    5530          0.0000
CQUAD4      5425       1    5530    5537    5538    5531          0.0000
CQUAD4      5426       1    5531    5538    5539    5532          0.0000
CQUAD4      5427       1    5532    5539    5540    5533          0.0000
CQUAD4      5428       1    5533    5540    5541    5534          0.0000
CQUAD4      5429       1    5534    5541    5542    5535          0.0000
CQUAD4      5430       1    5536    5543    5544    5537          0.0000
CQUAD4      5431       1    5537    5544    5545    5538          0.0000
CQUAD4      5432       1    5538    5545    5546    5539          0.0000
CQUAD4      5433       1    5539    5546    5547    5540          0.0000
CQUAD4      5434       1    5540    5547    5548    5541          0.0000
CQUAD4      5435       1    5541    5548    5549    5542          0.0000
CQUAD4      5436       1    5543    5550    5551    5544          0.0000
CQUAD4      5437       1    5544    5551    5552    5545          0.0000
CQUAD4      5438       1    5545    5552    5553    5546          0.0000
CQUAD4      5439       1    5546    5553    5554    5547          0.0000
CQUAD4      5440       1    5547    5554    5555    5548          0.0000
CQUAD4      5441       1    5548    5555    5556    5549          0.0000
CQUAD4      5442       1    5550    5557    5558    5551          0.0000
CQUAD4      5443       1    5551    5558    5559    5552          0.0000
CQUAD4      5444       1    5552    5559    5560    5553          0.0000
CQUAD4      5445       1    5553    5560    5561    5554          0.0000
CQUAD4      5446       1    5554    5561    5562    5555          0.0000
CQUAD4      5447       1    5555    5562    5563    5556          0.0000
CQUAD4      5448       1    5557    5564    5565    5558          0.0000
CQUAD4      5449       1    5558    5565    5566    5559          0.0000
CQUAD4      5450       1    5559    5566    5567    5560          0.0000
CQUAD4      5451       1    5560    5567    5568    5561          0.0000
CQUAD4      5452       1    5561    5568    5569    5562          0.0000
CQUAD4      5453       1    5562    5569    5570    5563          0.0000
CQUAD4      5454       1    5564    5571    5572    5565          0.0000
CQUAD4      5455       1    5565    5572    5573    5566          0.0000
CQUAD4      5456       1    5566    5573    5574    5567          0.0000
CQUAD4      5457       1    5567    5574    5575    5568          0.0000
CQUAD4      5458       1    5568    5575    5576    5569          0.0000
CQUAD4      5459       1    5569    5576    5577    5570          0.0000
CQUAD4      5460       1    5571    5578    5579    5572          0.0000
CQUAD4      5461       1    5572    5579    5580    5573          0.0000
CQUAD4      5462       1    5573    5580    5581    5574          0.0000
CQUAD4      5463       1    5574    5581    5582    5575          0.0000
CQUAD4      5464       1    5575    5582    5583    5576          0.0000
CQUAD4      5465       1    5576    5583    5584    5577          0.0000
CQUAD4      5466       1    5578    5585    5586    5579          0.0000
CQUAD4      5467       1    5579    5586    5587    5580          0.0000
CQUAD4      5468       1    5580    5587    5588    5581          0.0000
CQUAD4      5469       1    5581    5588    5589    5582          0.0000
CQUAD4      5470       1    5582    5589    5590    5583          0.0000
CQUAD4      5471       1    5583    5590    5591    5584          0.0000
CQUAD4      5472       1    5585    5592    5593    5586          0.0000
CQUAD4      5473       1    5586    5593    5594    5587          0.0000
CQUAD4      5474       1    5587    5594    5595    5588          0.0000
CQUAD4      5475       1    5588    5595    5596    5589          0.0000
CQUAD4      5476       1    5589    5596    5597    5590          0.0000
CQUAD4      5477       1    5590    5597    5598    5591          0.0000
CQUAD4      5478       1    5592    5599    5600    5593          0.0000
CQUAD4      5479       1    5593    5600    5601    5594          0.0000
CQUAD4      5480       1    5594    5601    5602    5595          0.0000
CQUAD4      5481       1    5595    5602    5603    5596          0.0000
CQUAD4      5482       1    5596    5603    5604    5597          0.0000
CQUAD4      5483       1    5597    5604    5605    5598          0.0000
CQUAD4      5484       1    5599    5606    5607    5600          0.0000
CQUAD4      5485       1    5600    5607    5608    5601          0.0000
CQUAD4      5486       1    5601    5608    5609    5602          0.0000
CQUAD4      5487       1    5602    5609    5610    5603          0.0000
CQUAD4      5488       1    5603    5610    5611    5604          0.0000
CQUAD4      5489       1    5604    5611    5612    5605          0.0000
CQUAD4      5490       1    5606    5613    5614    5607          0.0000
CQUAD4      5491       1    5607    5614    5615    5608          0.0000
CQUAD4      5492       1    5608    5615    5616    5609          0.0000
CQUAD4      5493       1    5609    5616    5617    5610          0.0000
CQUAD4      5494       1    5610    5617    5618    5611          0.0000
CQUAD4      5495       1    5611    5618    5619    5612          0.0000
CQUAD4      5496       1    5613    5620    5621    5614          0.0000
CQUAD4      5497       1    5614    5621    5622    5615          0.0000
CQUAD4      5498       1    5615    5622    5623    5616          0.0000
CQUAD4      5499       1    5616    5623    5624    5617          0.0000
CQUAD4      5500       1    5617    5624    5625    5618          0.0000
CQUAD4      5501       1    5618    5625    5626    5619          0.0000
CQUAD4      5502       1    5620    5627    5628    5621          0.0000
CQUAD4      5503       1    5621    5628    5629    5622          0.0000
CQUAD4      5504       1    5622    5629    5630    5623          0.0000
CQUAD4      5505       1    5623    5630    5631    5624          0.0000
CQUAD4      5506       1    5624    5631    5632    5625          0.0000
CQUAD4      5507       1    5625    5632    5633    5626          0.0000
CQUAD4      5508       1    5627    5634    5635    5628          0.0000
CQUAD4      5509       1    5628    5635    5636    5629          0.0000
CQUAD4      5510       1    5629    5636    5637    5630          0.0000
CQUAD4      5511       1    5630    5637    5638    5631          0.0000
CQUAD4      5512       1    5631    5638    5639    5632          0.0000
CQUAD4      5513       1    5632    5639    5640    5633          0.0000
CQUAD4      5514       1    5634    5641    5642    5635          0.0000
CQUAD4      5515       1    5635    5642    5643    5636          0.0000
CQUAD4      5516       1    5636    5643    5644    5637          0.0000
CQUAD4      5517       1    5637    5644    5645    5638          0.0000
CQUAD4      5518       1    5638    5645    5646    5639          0.0000
CQUAD4      5519       1    5639    5646    5647    5640          0.0000
CQUAD4      5520       1    5641    5648    5649    5642          0.0000
CQUAD4      5521       1    5642    5649    5650    5643          0.0000
CQUAD4      5522       1    5643    5650    5651    5644          0.0000
CQUAD4      5523       1    5644    5651    5652    5645          0.0000
CQUAD4      5524       1    5645    5652    5653    5646          0.0000
CQUAD4      5525       1    5646    5653    5654    5647          0.0000
CQUAD4      5526       1    5648    5655    5656    5649          0.0000
CQUAD4      5527       1    5649    5656    5657    5650          0.0000
CQUAD4      5528       1    5650    5657    5658    5651          0.0000
CQUAD4      5529       1    5651    5658    5659    5652          0.0000
CQUAD4      5530       1    5652    5659    5660    5653          0.0000
CQUAD4      5531       1    5653    5660    5661    5654          0.0000
CQUAD4      5532       1    5655    5662    5663    5656          0.0000
CQUAD4      5533       1    5656    5663    5664    5657          0.0000
CQUAD4      5534       1    5657    5664    5665    5658          0.0000
CQUAD4      5535       1    5658    5665    5666    5659          0.0000
CQUAD4      5536       1    5659    5666    5667    5660          0.0000
CQUAD4      5537       1    5660    5667    5668    5661          0.0000
CQUAD4      5538       1    5662    5669    5670    5663          0.0000
CQUAD4      5539       1    5663    5670    5671    5664          0.0000
CQUAD4      5540       1    5664    5671    5672    5665          0.0000
CQUAD4      5541       1    5665    5672    5673    5666          0.0000
CQUAD4      5542       1    5666    5673    5674    5667          0.0000
CQUAD4      5543       1    5667    5674    5675    5668          0.0000
CQUAD4      5544       1    5669    5676    5677    5670          0.0000
CQUAD4      5545       1    5670    5677    5678    5671          0.0000
CQUAD4      5546       1    5671    5678    5679    5672          0.0000
CQUAD4      5547       1    5672    5679    5680    5673          0.0000
CQUAD4      5548       1    5673    5680    5681    5674          0.0000
CQUAD4      5549       1    5674    5681    5682    5675          0.0000
CQUAD4      5550       1    5676    5683    5684    5677          0.0000
CQUAD4      5551       1    5677    5684    5685    5678          0.0000
CQUAD4      5552       1    5678    5685    5686    5679          0.0000
CQUAD4      5553       1    5679    5686    5687    5680          0.0000
CQUAD4      5554       1    5680    5687    5688    5681          0.0000
CQUAD4      5555       1    5681    5688    5689    5682          0.0000
CQUAD4      5556       1    5683    5690    5691    5684          0.0000
CQUAD4      5557       1    5684    5691    5692    5685          0.0000
CQUAD4      5558       1    5685    5692    5693    5686          0.0000
CQUAD4      5559       1    5686    5693    5694    5687          0.0000
CQUAD4      5560       1    5687    5694    5695    5688          0.0000
CQUAD4      5561       1    5688    5695    5696    5689          0.0000
CQUAD4      5562       1    5690    5697    5698    5691          0.0000
CQUAD4      5563       1    5691    5698    5699    5692          0.0000
CQUAD4      5564       1    5692    5699    5700    5693          0.0000
CQUAD4      5565       1    5693    5700    5701    5694          0.0000
CQUAD4      5566       1    5694    5701    5702    5695          0.0000
CQUAD4      5567       1    5695    5702    5703    5696          0.0000
CQUAD4      5568       1    5697    5704    5705    5698          0.0000
CQUAD4      5569       1    5698    5705    5706    5699          0.0000
CQUAD4      5570       1    5699    5706    5707    5700          0.0000
CQUAD4      5571       1    5700    5707    5708    5701          0.0000
CQUAD4      5572       1    5701    5708    5709    5702          0.0000
CQUAD4      5573       1    5702    5709    5710    5703          0.0000
CQUAD4      5574       1    5704    5711    5712    5705          0.0000
CQUAD4      5575       1    5705    5712    5713    5706          0.0000
CQUAD4      5576       1    5706    5713    5714    5707          0.0000
CQUAD4      5577       1    5707    5714    5715    5708          0.0000
CQUAD4      5578       1    5708    5715    5716    5709          0.0000
CQUAD4      5579       1    5709    5716    5717    5710          0.0000
CQUAD4      5580       1    5711    5718    5719    5712          0.0000
CQUAD4      5581       1    5712    5719    5720    5713          0.0000
CQUAD4      5582       1    5713    5720    5721    5714          0.0000
CQUAD4      5583       1    5714    5721    5722    5715          0.0000
CQUAD4      5584       1    5715    5722    5723    5716          0.0000
CQUAD4      5585       1    5716    5723    5724    5717          0.0000
CQUAD4      5586       1    5718    5725    5726    5719          0.0000
CQUAD4      5587       1    5719    5726    5727    5720          0.0000
CQUAD4      5588       1    5720    5727    5728    5721          0.0000
CQUAD4      5589       1    5721    5728    5729    5722          0.0000
CQUAD4      5590       1    5722    5729    5730    5723          0.0000
CQUAD4      5591       1    5723    5730    5731    5724          0.0000
CQUAD4      5592       1    5725    5732    5733    5726          0.0000
CQUAD4      5593       1    5726    5733    5734    5727          0.0000
CQUAD4      5594       1    5727    5734    5735    5728          0.0000
CQUAD4      5595       1    5728    5735    5736    5729          0.0000
CQUAD4      5596       1    5729    5736    5737    5730          0.0000
CQUAD4      5597       1    5730    5737    5738    5731          0.0000
CQUAD4      5598       1    5732    5739    5740    5733          0.0000
CQUAD4      5599       1    5733    5740    5741    5734          0.0000
CQUAD4      5600       1    5734    5741    5742    5735          0.0000
CQUAD4      5601       1    5735    5742    5743    5736          0.0000
CQUAD4      5602       1    5736    5743    5744    5737          0.0000
CQUAD4      5603       1    5737    5744    5745    5738          0.0000
CQUAD4      5604       1    5739    5746    5747    5740          0.0000
CQUAD4      5605       1    5740    5747    5748    5741          0.0000
CQUAD4      5606       1    5741    5748    5749    5742          0.0000
CQUAD4      5607       1    5742    5749    5750    5743          0.0000
CQUAD4      5608       1    5743    5750    5751    5744          0.0000
CQUAD4      5609       1    5744    5751    5752    5745          0.0000
CQUAD4      5610       1    5746    5753    5754    5747          0.0000
CQUAD4      5611       1    5747    5754    5755    5748          0.0000
CQUAD4      5612       1    5748    5755    5756    5749          0.0000
CQUAD4      5613       1    5749    5756    5757    5750          0.0000
CQUAD4      5614       1    5750    5757    5758    5751          0.0000
CQUAD4      5615       1    5751    5758    5759    5752          0.0000
CQUAD4      5616       1    5753    5760    5761    5754          0.0000
CQUAD4      5617       1    5754    5761    5762    5755          0.0000
CQUAD4      5618       1    5755    5762    5763    5756          0.0000
CQUAD4      5619       1    5756    5763    5764    5757          0.0000
CQUAD4      5620       1    5757    5764    5765    5758          0.0000
CQUAD4      5621       1    5758    5765    5766    5759          0.0000
CQUAD4      5622       1    5760    5767    5768    5761          0.0000
CQUAD4      5623       1    5761    5768    5769    5762          0.0000
CQUAD4      5624       1    5762    5769    5770    5763          0.0000
CQUAD4      5625       1    5763    5770    5771    5764          0.0000
CQUAD4      5626       1    5764    5771    5772    5765          0.0000
CQUAD4      5627       1    5765    5772    5773    5766          0.0000
CQUAD4      5628       1    5767    5774    5775    5768          0.0000
CQUAD4      5629       1    5768    5775    5776    5769          0.0000
CQUAD4      5630       1    5769    5776    5777    5770          0.0000
CQUAD4      5631       1    5770    5777    5778    5771          0.0000
CQUAD4      5632       1    5771    5778    5779    5772          0.0000
CQUAD4      5633       1    5772    5779    5780    5773          0.0000
CQUAD4      5634       1    5774    5781    5782    5775          0.0000
CQUAD4      5635       1    5775    5782    5783    5776          0.0000
CQUAD4      5636       1    5776    5783    5784    5777          0.0000
CQUAD4      5637       1    5777    5784    5785    5778          0.0000
CQUAD4      5638       1    5778    5785    5786    5779          0.0000
CQUAD4      5639       1    5779    5786    5787    5780          0.0000
CQUAD4      5640       1    5781    5788    5789    5782          0.0000
CQUAD4      5641       1    5782    5789    5790    5783          0.0000
CQUAD4      5642       1    5783    5790    5791    5784          0.0000
CQUAD4      5643       1    5784    5791    5792    5785          0.0000
CQUAD4      5644       1    5785    5792    5793    5786          0.0000
CQUAD4      5645       1    5786    5793    5794    5787          0.0000
CQUAD4      5646       1    5788    5795    5796    5789          0.0000
CQUAD4      5647       1    5789    5796    5797    5790          0.0000
CQUAD4      5648       1    5790    5797    5798    5791          0.0000
CQUAD4      5649       1    5791    5798    5799    5792          0.0000
CQUAD4      5650       1    5792    5799    5800    5793          0.0000
CQUAD4      5651       1    5793    5800    5801    5794          0.0000
CQUAD4      5652       1    5795    5802    5803    5796          0.0000
CQUAD4      5653       1    5796    5803    5804    5797          0.0000
CQUAD4      5654       1    5797    5804    5805    5798          0.0000
CQUAD4      5655       1    5798    5805    5806    5799          0.0000
CQUAD4      5656       1    5799    5806    5807    5800          0.0000
CQUAD4      5657       1    5800    5807    5808    5801          0.0000
CQUAD4      5658       1    5802    5809    5810    5803          0.0000
CQUAD4      5659       1    5803    5810    5811    5804          0.0000
CQUAD4      5660       1    5804    5811    5812    5805          0.0000
CQUAD4      5661       1    5805    5812    5813    5806          0.0000
CQUAD4      5662       1    5806    5813    5814    5807          0.0000
CQUAD4      5663       1    5807    5814    5815    5808          0.0000
CQUAD4      5664       1    5809    5816    5817    5810          0.0000
CQUAD4      5665       1    5810    5817    5818    5811          0.0000
CQUAD4      5666       1    5811    5818    5819    5812          0.0000
CQUAD4      5667       1    5812    5819    5820    5813          0.0000
CQUAD4      5668       1    5813    5820    5821    5814          0.0000
CQUAD4      5669       1    5814    5821    5822    5815          0.0000
CQUAD4      5670       1    5816    5823    5824    5817          0.0000
CQUAD4      5671       1    5817    5824    5825    5818          0.0000
CQUAD4      5672       1    5818    5825    5826    5819          0.0000
CQUAD4      5673       1    5819    5826    5827    5820          0.0000
CQUAD4      5674       1    5820    5827    5828    5821          0.0000
CQUAD4      5675       1    5821    5828    5829    5822          0.0000
CQUAD4      5676       1    5823    5830    5831    5824          0.0000
CQUAD4      5677       1    5824    5831    5832    5825          0.0000
CQUAD4      5678       1    5825    5832    5833    5826          0.0000
CQUAD4      5679       1    5826    5833    5834    5827          0.0000
CQUAD4      5680       1    5827    5834    5835    5828          0.0000
CQUAD4      5681       1    5828    5835    5836    5829          0.0000
CQUAD4      5682       1    5830    5837    5838    5831          0.0000
CQUAD4      5683       1    5831    5838    5839    5832          0.0000
CQUAD4      5684       1    5832    5839    5840    5833          0.0000
CQUAD4      5685       1    5833    5840    5841    5834          0.0000
CQUAD4      5686       1    5834    5841    5842    5835          0.0000
CQUAD4      5687       1    5835    5842    5843    5836          0.0000
CQUAD4      5688       1    5837    5844    5845    5838          0.0000
CQUAD4      5689       1    5838    5845    5846    5839          0.0000
CQUAD4      5690       1    5839    5846    5847    5840          0.0000
CQUAD4      5691       1    5840    5847    5848    5841          0.0000
CQUAD4      5692       1    5841    5848    5849    5842          0.0000
CQUAD4      5693       1    5842    5849    5850    5843          0.0000
CQUAD4      5694       1    5844    5851    5852    5845          0.0000
CQUAD4      5695       1    5845    5852    5853    5846          0.0000
CQUAD4      5696       1    5846    5853    5854    5847          0.0000
CQUAD4      5697       1    5847    5854    5855    5848          0.0000
CQUAD4      5698       1    5848    5855    5856    5849          0.0000
CQUAD4      5699       1    5849    5856    5857    5850          0.0000
CQUAD4      5700       1    5851    5858    5859    5852          0.0000
CQUAD4      5701       1    5852    5859    5860    5853          0.0000
CQUAD4      5702       1    5853    5860    5861    5854          0.0000
CQUAD4      5703       1    5854    5861    5862    5855          0.0000
CQUAD4      5704       1    5855    5862    5863    5856          0.0000
CQUAD4      5705       1    5856    5863    5864    5857          0.0000
CQUAD4      5706       1    5858    5865    5866    5859          0.0000
CQUAD4      5707       1    5859    5866    5867    5860          0.0000
CQUAD4      5708       1    5860    5867    5868    5861          0.0000
CQUAD4      5709       1    5861    5868    5869    5862          0.0000
CQUAD4      5710       1    5862    5869    5870    5863          0.0000
CQUAD4      5711       1    5863    5870    5871    5864          0.0000
CQUAD4      5712       1    5865    5872    5873    5866          0.0000
CQUAD4      5713       1    5866    5873    5874    5867          0.0000
CQUAD4      5714       1    5867    5874    5875    5868          0.0000
CQUAD4      5715       1    5868    5875    5876    5869          0.0000
CQUAD4      5716       1    5869    5876    5877    5870          0.0000
CQUAD4      5717       1    5870    5877    5878    5871          0.0000
CQUAD4      5718       1    5872    5879    5880    5873          0.0000
CQUAD4      5719       1    5873    5880    5881    5874          0.0000
CQUAD4      5720       1    5874    5881    5882    5875          0.0000
CQUAD4      5721       1    5875    5882    5883    5876          0.0000
CQUAD4      5722       1    5876    5883    5884    5877          0.0000
CQUAD4      5723       1    5877    5884    5885    5878          0.0000
CQUAD4      5724       1    5879    5886    5887    5880          0.0000
CQUAD4      5725       1    5880    5887    5888    5881          0.0000
CQUAD4      5726       1    5881    5888    5889    5882          0.0000
CQUAD4      5727       1    5882    5889    5890    5883          0.0000
CQUAD4      5728       1    5883    5890    5891    5884          0.0000
CQUAD4      5729       1    5884    5891    5892    5885          0.0000
CQUAD4      5730       1    5886    5893    5894    5887          0.0000
CQUAD4      5731       1    5887    5894    5895    5888          0.0000
CQUAD4      5732       1    5888    5895    5896    5889          0.0000
CQUAD4      5733       1    5889    5896    5897    5890          0.0000
CQUAD4      5734       1    5890    5897    5898    5891          0.0000
CQUAD4      5735       1    5891    5898    5899    5892          0.0000
CQUAD4      5736       1    5893    5900    5901    5894          0.0000
CQUAD4      5737       1    5894    5901    5902    5895          0.0000
CQUAD4      5738       1    5895    5902    5903    5896          0.0000
CQUAD4      5739       1    5896    5903    5904    5897          0.0000
CQUAD4      5740       1    5897    5904    5905    5898          0.0000
CQUAD4      5741       1    5898    5905    5906    5899          0.0000
CQUAD4      5742       1    5900    5907    5908    5901          0.0000
CQUAD4      5743       1    5901    5908    5909    5902          0.0000
CQUAD4      5744       1    5902    5909    5910    5903          0.0000
CQUAD4      5745       1    5903    5910    5911    5904          0.0000
CQUAD4      5746       1    5904    5911    5912    5905          0.0000
CQUAD4      5747       1    5905    5912    5913    5906          0.0000
CQUAD4      5748       1    5907    5914    5915    5908          0.0000
CQUAD4      5749       1    5908    5915    5916    5909          0.0000
CQUAD4      5750       1    5909    5916    5917    5910          0.0000
CQUAD4      5751       1    5910    5917    5918    5911          0.0000
CQUAD4      5752       1    5911    5918    5919    5912          0.0000
CQUAD4      5753       1    5912    5919    5920    5913          0.0000
CQUAD4      5754       1    5914    5921    5922    5915          0.0000
CQUAD4      5755       1    5915    5922    5923    5916          0.0000
CQUAD4      5756       1    5916    5923    5924    5917          0.0000
CQUAD4      5757       1    5917    5924    5925    5918          0.0000
CQUAD4      5758       1    5918    5925    5926    5919          0.0000
CQUAD4      5759       1    5919    5926    5927    5920          0.0000
CQUAD4      5760       1    5921    5928    5929    5922          0.0000
CQUAD4      5761       1    5922    5929    5930    5923          0.0000
CQUAD4      5762       1    5923    5930    5931    5924          0.0000
CQUAD4      5763       1    5924    5931    5932    5925          0.0000
CQUAD4      5764       1    5925    5932    5933    5926          0.0000
CQUAD4      5765       1    5926    5933    5934    5927          0.0000
CQUAD4      5766       1    5928    5935    5936    5929          0.0000
CQUAD4      5767       1    5929    5936    5937    5930          0.0000
CQUAD4      5768       1    5930    5937    5938    5931          0.0000
CQUAD4      5769       1    5931    5938    5939    5932          0.0000
CQUAD4      5770       1    5932    5939    5940    5933          0.0000
CQUAD4      5771       1    5933    5940    5941    5934          0.0000
CQUAD4      5772       1    5935    5942    5943    5936          0.0000
CQUAD4      5773       1    5936    5943    5944    5937          0.0000
CQUAD4      5774       1    5937    5944    5945    5938          0.0000
CQUAD4      5775       1    5938    5945    5946    5939          0.0000
CQUAD4      5776       1    5939    5946    5947    5940          0.0000
CQUAD4      5777       1    5940    5947    5948    5941          0.0000
CQUAD4      5778       1    5942    5949    5950    5943          0.0000
CQUAD4      5779       1    5943    5950    5951    5944          0.0000
CQUAD4      5780       1    5944    5951    5952    5945          0.0000
CQUAD4      5781       1    5945    5952    5953    5946          0.0000
CQUAD4      5782       1    5946    5953    5954    5947          0.0000
CQUAD4      5783       1    5947    5954    5955    5948          0.0000
CQUAD4      5784       1    5949    5956    5957    5950          0.0000
CQUAD4      5785       1    5950    5957    5958    5951          0.0000
CQUAD4      5786       1    5951    5958    5959    5952          0.0000
CQUAD4      5787       1    5952    5959    5960    5953          0.0000
CQUAD4      5788       1    5953    5960    5961    5954          0.0000
CQUAD4      5789       1    5954    5961    5962    5955          0.0000
CQUAD4      5790       1    5956    5963    5964    5957          0.0000
CQUAD4      5791       1    5957    5964    5965    5958          0.0000
CQUAD4      5792       1    5958    5965    5966    5959          0.0000
CQUAD4      5793       1    5959    5966    5967    5960          0.0000
CQUAD4      5794       1    5960    5967    5968    5961          0.0000
CQUAD4      5795       1    5961    5968    5969    5962          0.0000
CQUAD4      5796       1    5963    5970    5971    5964          0.0000
CQUAD4      5797       1    5964    5971    5972    5965          0.0000
CQUAD4      5798       1    5965    5972    5973    5966          0.0000
CQUAD4      5799       1    5966    5973    5974    5967          0.0000
CQUAD4      5800       1    5967    5974    5975    5968          0.0000
CQUAD4      5801       1    5968    5975    5976    5969          0.0000
CQUAD4      5802       1    5970    5977    5978    5971          0.0000
CQUAD4      5803       1    5971    5978    5979    5972          0.0000
CQUAD4      5804       1    5972    5979    5980    5973          0.0000
CQUAD4      5805       1    5973    5980    5981    5974          0.0000
CQUAD4      5806       1    5974    5981    5982    5975          0.0000
CQUAD4      5807       1    5975    5982    5983    5976          0.0000
CQUAD4      5808       1    7160    7147    4836    6976          0.0000
CQUAD4      5809       1    7147    7146    4843    4836          0.0000
CQUAD4      5810       1    7146    7145    4850    4843          0.0000
CQUAD4      5811       1    7145    7144    4857    4850          0.0000
CQUAD4      5812       1    7144    7143    4864    4857          0.0000
CQUAD4      5813       1    7143    7142    4871    4864          0.0000
CQUAD4      5814       1    7142    7141    4878    4871          0.0000
CQUAD4      5815       1    7141    7140    4885    4878          0.0000
CQUAD4      5816       1    7140    7139    4892    4885          0.0000
CQUAD4      5817       1    7139    7138    4899    4892          0.0000
CQUAD4      5818       1    7138    7137    4906    4899          0.0000
CQUAD4      5819       1    7137    7136    4913    4906          0.0000
CQUAD4      5820       1    7136    7135    4920    4913          0.0000
CQUAD4      5821       1    7135    7134    4927    4920          0.0000
CQUAD4      5822       1    7134    7133    4934    4927          0.0000
CQUAD4      5823       1    7133    7132    4941    4934          0.0000
CQUAD4      5824       1    7132    7131    4948    4941          0.0000
CQUAD4      5825       1    7131    7130    4955    4948          0.0000
CQUAD4      5826       1    7130    7129    4962    4955          0.0000
CQUAD4      5827       1    7129    7128    4969    4962          0.0000
CQUAD4      5828       1    7128    7127    4976    4969          0.0000
CQUAD4      5829       1    7127    7126    4983    4976          0.0000
CQUAD4      5830       1    7126    7125    4990    4983          0.0000
CQUAD4      5831       1    7125    7124    4997    4990          0.0000
CQUAD4      5832       1    7124    7123    5004    4997          0.0000
CQUAD4      5833       1    7123    7122    5011    5004          0.0000
CQUAD4      5834       1    7122    7121    5018    5011          0.0000
CQUAD4      5835       1    7121    7120    5025    5018          0.0000
CQUAD4      5836       1    7120    7119    5032    5025          0.0000
CQUAD4      5837       1    7119    7118    5039    5032          0.0000
CQUAD4      5838       1    7118    7117    5046    5039          0.0000
CQUAD4      5839       1    7117    7116    5053    5046          0.0000
CQUAD4      5840       1    7116    7115    5060    5053          0.0000
CQUAD4      5841       1    7115    7114    5067    5060          0.0000
CQUAD4      5842       1    7114    7113    5074    5067          0.0000
CQUAD4      5843       1    7113    7112    5081    5074          0.0000
CQUAD4      5844       1    7112    7111    5088    5081          0.0000
CQUAD4      5845       1    7111    7110    5095    5088          0.0000
CQUAD4      5846       1    7110    7109    5102    5095          0.0000
CQUAD4      5847       1    7109    7108    5109    5102          0.0000
CQUAD4      5848       1    7108    7107    5116    5109          0.0000
CQUAD4      5849       1    7107    7106    5123    5116          0.0000
CQUAD4      5850       1    7106    7105    5130    5123          0.0000
CQUAD4      5851       1    7105    7104    5137    5130          0.0000
CQUAD4      5852       1    7104    7103    5144    5137          0.0000
CQUAD4      5853       1    7103    7102    5151    5144          0.0000
CQUAD4      5854       1    7102    7101    5158    5151          0.0000
CQUAD4      5855       1    7101    7100    5165    5158          0.0000
CQUAD4      5856       1    7100    7099    5172    5165          0.0000
CQUAD4      5857       1    7099    7098    5179    5172          0.0000
CQUAD4      5858       1    7098    7097    5186    5179          0.0000
CQUAD4      5859       1    7097    7096    5193    5186          0.0000
CQUAD4      5860       1    7096    7095    5200    5193          0.0000
CQUAD4      5861       1    7095    7094    5207    5200          0.0000
CQUAD4      5862       1    7094    7093    5214    5207          0.0000
CQUAD4      5863       1    7093    7092    5221    5214          0.0000
CQUAD4      5864       1    7092    7091    5228    5221          0.0000
CQUAD4      5865       1    7091    7090    5235    5228          0.0000
CQUAD4      5866       1    7090    7089    5242    5235          0.0000
CQUAD4      5867       1    7089    7088    5249    5242          0.0000
CQUAD4      5868       1    7088    7087    5256    5249          0.0000
CQUAD4      5869       1    7087    7086    5263    5256          0.0000
CQUAD4      5870       1    7086    7085    5270    5263          0.0000
CQUAD4      5871       1    7085    7084    5277    5270          0.0000
CQUAD4      5872       1    7084    7083    5284    5277          0.0000
CQUAD4      5873       1    7083    7082    5291    5284          0.0000
CQUAD4      5874       1    7082    7081    5298    5291          0.0000
CQUAD4      5875       1    7081    7080    5305    5298          0.0000
CQUAD4      5876       1    7080    7079    5312    5305          0.0000
CQUAD4      5877       1    7079    7078    5319    5312          0.0000
CQUAD4      5878       1    7078    7077    5326    5319          0.0000
CQUAD4      5879       1    7077    7076    5333    5326          0.0000
CQUAD4      5880       1    7076    7075    5340    5333          0.0000
CQUAD4      5881       1    7075    7074    5347    5340          0.0000
CQUAD4      5882       1    7074    7073    5354    5347          0.0000
CQUAD4      5883       1    7073    7072    5361    5354          0.0000
CQUAD4      5884       1    7072    7071    5368    5361          0.0000
CQUAD4      5885       1    7071    7070    5375    5368          0.0000
CQUAD4      5886       1    7070    7069    5382    5375          0.0000
CQUAD4      5887       1    7069    7068    5389    5382          0.0000
CQUAD4      5888       1    7068    7067    5396    5389          0.0000
CQUAD4      5889       1    7067    7066    5403    5396          0.0000
CQUAD4      5890       1    7066    7065    5410    5403          0.0000
CQUAD4      5891       1    7065    7064    5417    5410          0.0000
CQUAD4      5892       1    7064    7063    5424    5417          0.0000
CQUAD4      5893       1    7063    7062    5431    5424          0.0000
CQUAD4      5894       1    7062    7061    5438    5431          0.0000
CQUAD4      5895       1    7061    7060    5445    5438          0.0000
CQUAD4      5896       1    7060    7059    5452    5445          0.0000
CQUAD4      5897       1    7059    7058    5459    5452          0.0000
CQUAD4      5898       1    7058    7057    5466    5459          0.0000
CQUAD4      5899       1    7057    7056    5473    5466          0.0000
CQUAD4      5900       1    7056    7055    5480    5473          0.0000
CQUAD4      5901       1    7055    7054    5487    5480          0.0000
CQUAD4      5902       1    7054    7053    5494    5487          0.0000
CQUAD4      5903       1    7053    7052    5501    5494          0.0000
CQUAD4      5904       1    7052    7051    5508    5501          0.0000
CQUAD4      5905       1    7051    7050    5515    5508          0.0000
CQUAD4      5906       1    7050    7049    5522    5515          0.0000
CQUAD4      5907       1    7049    7048    5529    5522          0.0000
CQUAD4      5908       1    7048    7047    5536    5529          0.0000
CQUAD4      5909       1    7047    7046    5543    5536          0.0000
CQUAD4      5910       1    7046    7045    5550    5543          0.0000
CQUAD4      5911       1    7045    7044    5557    5550          0.0000
CQUAD4      5912       1    7044    7043    5564    5557          0.0000
CQUAD4      5913       1    7043    7042    5571    5564          0.0000
CQUAD4      5914       1    7042    7041    5578    5571          0.0000
CQUAD4      5915       1    7041    7040    5585    5578          0.0000
CQUAD4      5916       1    7040    7039    5592    5585          0.0000
CQUAD4      5917       1    7039    7038    5599    5592          0.0000
CQUAD4      5918       1    7038    7037    5606    5599          0.0000
CQUAD4      5919       1    7037    7036    5613    5606          0.0000
CQUAD4      5920       1    7036    7035    5620    5613          0.0000
CQUAD4      5921       1    7035    7034    5627    5620          0.0000
CQUAD4      5922       1    7034    7033    5634    5627          0.0000
CQUAD4      5923       1    7033    7032    5641    5634          0.0000
CQUAD4      5924       1    7032    7031    5648    5641          0.0000
CQUAD4      5925       1    7031    7030    5655    5648          0.0000
CQUAD4      5926       1    7030    7029    5662    5655          0.0000
CQUAD4      5927       1    7029    7028    5669    5662          0.0000
CQUAD4      5928       1    7028    7027    5676    5669          0.0000
CQUAD4      5929       1    7027    7026    5683    5676          0.0000
CQUAD4      5930       1    7026    7025    5690    5683          0.0000
CQUAD4      5931       1    7025    7024    5697    5690          0.0000
CQUAD4      5932       1    7024    7023    5704    5697          0.0000
CQUAD4      5933       1    7023    7022    5711    5704          0.0000
CQUAD4      5934       1    7022    7021    5718    5711          0.0000
CQUAD4      5935       1    7021    7020    5725    5718          0.0000
CQUAD4      5936       1    7020    7019    5732    5725          0.0000
CQUAD4      5937       1    7019    7018    5739    5732          0.0000
CQUAD4      5938       1    7018    7017    5746    5739          0.0000
CQUAD4      5939       1    7017    7016    5753    5746          0.0000
CQUAD4      5940       1    7016    7015    5760    5753          0.0000
CQUAD4      5941       1    7015    7014    5767    5760          0.0000
CQUAD4      5942       1    7014    7013    5774    5767          0.0000
CQUAD4      5943       1    7013    7012    5781    5774          0.0000
CQUAD4      5944       1    7012    7011    5788    5781          0.0000
CQUAD4      5945       1    7011    7010    5795    5788          0.0000
CQUAD4      5946       1    7010    7009    5802    5795          0.0000
CQUAD4      5947       1    7009    7008    5809    5802          0.0000
CQUAD4      5948       1    7008    7007    5816    5809          0.0000
CQUAD4      5949       1    7007    7006    5823    5816          0.0000
CQUAD4      5950       1    7006    7005    5830    5823          0.0000
CQUAD4      5951       1    7005    7004    5837    5830          0.0000
CQUAD4      5952       1    7004    7003    5844    5837          0.0000
CQUAD4      5953       1    7003    7002    5851    5844          0.0000
CQUAD4      5954       1    7002    7001    5858    5851          0.0000
CQUAD4      5955       1    7001    7000    5865    5858          0.0000
CQUAD4      5956       1    7000    6999    5872    5865          0.0000
CQUAD4      5957       1    6999    6998    5879    5872          0.0000
CQUAD4      5958       1    6998    6997    5886    5879          0.0000
CQUAD4      5959       1    6997    6996    5893    5886          0.0000
CQUAD4      5960       1    6996    6995    5900    5893          0.0000
CQUAD4      5961       1    6995    6994    5907    5900          0.0000
CQUAD4      5962       1    6994    6993    5914    5907          0.0000
CQUAD4      5963       1    6993    6992    5921    5914          0.0000
CQUAD4      5964       1    6992    6991    5928    5921          0.0000
CQUAD4      5965       1    6991    6990    5935    5928          0.0000
CQUAD4      5966       1    6990    6989    5942    5935          0.0000
CQUAD4      5967       1    6989    6988    5949    5942          0.0000
CQUAD4      5968       1    6988    6987    5956    5949          0.0000
CQUAD4      5969       1    6987    6986    5963    5956          0.0000
CQUAD4      5970       1    6986    6985    5970    5963          0.0000
CQUAD4      5971       1    6985    6984    5977    5970          0.0000
CQUAD4      5972       1    6984    7161    6983    5977          0.0000
CQUAD4      5973       1    5977    6983    6982    5978          0.0000
CQUAD4      5974       1    5978    6982    6981    5979          0.0000
CQUAD4      5975       1    5979    6981    6980    5980          0.0000
CQUAD4      5976       1    5980    6980    6979    5981          0.0000
CQUAD4      5977       1    5981    6979    6978    5982          0.0000
CQUAD4      5978       1    5982    6978    6977    5983          0.0000
CQUAD4      5979       1    5983    6977    7158    6806          0.0000
CQUAD4      5980       1    5976    5983    6806    6807          0.0000
CQUAD4      5981       1    5969    5976    6807    6808          0.0000
CQUAD4      5982       1    5962    5969    6808    6809          0.0000
CQUAD4      5983       1    5955    5962    6809    6810          0.0000
CQUAD4      5984       1    5948    5955    6810    6811          0.0000
CQUAD4      5985       1    5941    5948    6811    6812          0.0000
CQUAD4      5986       1    5934    5941    6812    6813          0.0000
CQUAD4      5987       1    5927    5934    6813    6814          0.0000
CQUAD4      5988       1    5920    5927    6814    6815          0.0000
CQUAD4      5989       1    5913    5920    6815    6816          0.0000
CQUAD4      5990       1    5906    5913    6816    6817          0.0000
CQUAD4      5991       1    5899    5906    6817    6818          0.0000
CQUAD4      5992       1    5892    5899    6818    6819          0.0000
CQUAD4      5993       1    5885    5892    6819    6820          0.0000
CQUAD4      5994       1    5878    5885    6820    6821          0.0000
CQUAD4      5995       1    5871    5878    6821    6822          0.0000
CQUAD4      5996       1    5864    5871    6822    6823          0.0000
CQUAD4      5997       1    5857    5864    6823    6824          0.0000
CQUAD4      5998       1    5850    5857    6824    6825          0.0000
CQUAD4      5999       1    5843    5850    6825    6826          0.0000
CQUAD4      6000       1    5836    5843    6826    6827          0.0000
CQUAD4      6001       1    5829    5836    6827    6828          0.0000
CQUAD4      6002       1    5822    5829    6828    6829          0.0000
CQUAD4      6003       1    5815    5822    6829    6830          0.0000
CQUAD4      6004       1    5808    5815    6830    6831          0.0000
CQUAD4      6005       1    5801    5808    6831    6832          0.0000
CQUAD4      6006       1    5794    5801    6832    6833          0.0000
CQUAD4      6007       1    5787    5794    6833    6834          0.0000
CQUAD4      6008       1    5780    5787    6834    6835          0.0000
CQUAD4      6009       1    5773    5780    6835    6836          0.0000
CQUAD4      6010       1    5766    5773    6836    6837          0.0000
CQUAD4      6011       1    5759    5766    6837    6838          0.0000
CQUAD4      6012       1    5752    5759    6838    6839          0.0000
CQUAD4      6013       1    5745    5752    6839    6840          0.0000
CQUAD4      6014       1    5738    5745    6840    6841          0.0000
CQUAD4      6015       1    5731    5738    6841    6842          0.0000
CQUAD4      6016       1    5724    5731    6842    6843          0.0000
CQUAD4      6017       1    5717    5724    6843    6844          0.0000
CQUAD4      6018       1    5710    5717    6844    6845          0.0000
CQUAD4      6019       1    5703    5710    6845    6846          0.0000
CQUAD4      6020       1    5696    5703    6846    6847          0.0000
CQUAD4      6021       1    5689    5696    6847    6848          0.0000
CQUAD4      6022       1    5682    5689    6848    6849          0.0000
CQUAD4      6023       1    5675    5682    6849    6850          0.0000
CQUAD4      6024       1    5668    5675    6850    6851          0.0000
CQUAD4      6025       1    5661    5668    6851    6852          0.0000
CQUAD4      6026       1    5654    5661    6852    6853          0.0000
CQUAD4      6027       1    5647    5654    6853    6854          0.0000
CQUAD4      6028       1    5640    5647    6854    6855          0.0000
CQUAD4      6029       1    5633    5640    6855    6856          0.0000
CQUAD4      6030       1    5626    5633    6856    6857          0.0000
CQUAD4      6031       1    5619    5626    6857    6858          0.0000
CQUAD4      6032       1    5612    5619    6858    6859          0.0000
CQUAD4      6033       1    5605    5612    6859    6860          0.0000
CQUAD4      6034       1    5598    5605    6860    6861          0.0000
CQUAD4      6035       1    5591    5598    6861    6862          0.0000
CQUAD4      6036       1    5584    5591    6862    6863          0.0000
CQUAD4      6037       1    5577    5584    6863    6864          0.0000
CQUAD4      6038       1    5570    5577    6864    6865          0.0000
CQUAD4      6039       1    5563    5570    6865    6866          0.0000
CQUAD4      6040       1    5556    5563    6866    6867          0.0000
CQUAD4      6041       1    5549    5556    6867    6868          0.0000
CQUAD4      6042       1    5542    5549    6868    6869          0.0000
CQUAD4      6043       1    5535    5542    6869    6870          0.0000
CQUAD4      6044       1    5528    5535    6870    6871          0.0000
CQUAD4      6045       1    5521    5528    6871    6872          0.0000
CQUAD4      6046       1    5514    5521    6872    6873          0.0000
CQUAD4      6047       1    5507    5514    6873    6874          0.0000
CQUAD4      6048       1    5500    5507    6874    6875          0.0000
CQUAD4      6049       1    5493    5500    6875    6876          0.0000
CQUAD4      6050       1    5486    5493    6876    6877          0.0000
CQUAD4      6051       1    5479    5486    6877    6878          0.0000
CQUAD4      6052       1    5472    5479    6878    6879          0.0000
CQUAD4      6053       1    5465    5472    6879    6880          0.0000
CQUAD4      6054       1    5458    5465    6880    6881          0.0000
CQUAD4      6055       1    5451    5458    6881    6882          0.0000
CQUAD4      6056       1    5444    5451    6882    6883          0.0000
CQUAD4      6057       1    5437    5444    6883    6884          0.0000
CQUAD4      6058       1    5430    5437    6884    6885          0.0000
CQUAD4      6059       1    5423    5430    6885    6886          0.0000
CQUAD4      6060       1    5416    5423    6886    6887          0.0000
CQUAD4      6061       1    5409    5416    6887    6888          0.0000
CQUAD4      6062       1    5402    5409    6888    6889          0.0000
CQUAD4      6063       1    5395    5402    6889    6890          0.0000
CQUAD4      6064       1    5388    5395    6890    6891          0.0000
CQUAD4      6065       1    5381    5388    6891    6892          0.0000
CQUAD4      6066       1    5374    5381    6892    6893          0.0000
CQUAD4      6067       1    5367    5374    6893    6894          0.0000
CQUAD4      6068       1    5360    5367    6894    6895          0.0000
CQUAD4      6069       1    5353    5360    6895    6896          0.0000
CQUAD4      6070       1    5346    5353    6896    6897          0.0000
CQUAD4      6071       1    5339    5346    6897    6898          0.0000
CQUAD4      6072       1    5332    5339    6898    6899          0.0000
CQUAD4      6073       1    5325    5332    6899    6900          0.0000
CQUAD4      6074       1    5318    5325    6900    6901          0.0000
CQUAD4      6075       1    5311    5318    6901    6902          0.0000
CQUAD4      6076       1    5304    5311    6902    6903          0.0000
CQUAD4      6077       1    5297    5304    6903    6904          0.0000
CQUAD4      6078       1    5290    5297    6904    6905          0.0000
CQUAD4      6079       1    5283    5290    6905    6906          0.0000
CQUAD4      6080       1    5276    5283    6906    6907          0.0000
CQUAD4      6081       1    5269    5276    6907    6908          0.0000
CQUAD4      6082       1    5262    5269    6908    6909          0.0000
CQUAD4      6083       1    5255    5262    6909    6910          0.0000
CQUAD4      6084       1    5248    5255    6910    6911          0.0000
CQUAD4      6085       1    5241    5248    6911    6912          0.0000
CQUAD4      6086       1    5234    5241    6912    6913          0.0000
CQUAD4      6087       1    5227    5234    6913    6914          0.0000
CQUAD4      6088       1    5220    5227    6914    6915          0.0000
CQUAD4      6089       1    5213    5220    6915    6916          0.0000
CQUAD4      6090       1    5206    5213    6916    6917          0.0000
CQUAD4      6091       1    5199    5206    6917    6918          0.0000
CQUAD4      6092       1    5192    5199    6918    6919          0.0000
CQUAD4      6093       1    5185    5192    6919    6920          0.0000
CQUAD4      6094       1    5178    5185    6920    6921          0.0000
CQUAD4      6095       1    5171    5178    6921    6922          0.0000
CQUAD4      6096       1    5164    5171    6922    6923          0.0000
CQUAD4      6097       1    5157    5164    6923    6924          0.0000
CQUAD4      6098       1    5150    5157    6924    6925          0.0000
CQUAD4      6099       1    5143    5150    6925    6926          0.0000
CQUAD4      6100       1    5136    5143    6926    6927          0.0000
CQUAD4      6101       1    5129    5136    6927    6928          0.0000
CQUAD4      6102       1    5122    5129    6928    6929          0.0000
CQUAD4      6103       1    5115    5122    6929    6930          0.0000
CQUAD4      6104       1    5108    5115    6930    6931          0.0000
CQUAD4      6105       1    5101    5108    6931    6932          0.0000
CQUAD4      6106       1    5094    5101    6932    6933          0.0000
CQUAD4      6107       1    5087    5094    6933    6934          0.0000
CQUAD4      6108       1    5080    5087    6934    6935          0.0000
CQUAD4      6109       1    5073    5080    6935    6936          0.0000
CQUAD4      6110       1    5066    5073    6936    6937          0.0000
CQUAD4      6111       1    5059    5066    6937    6938          0.0000
CQUAD4      6112       1    5052    5059    6938    6939          0.0000
CQUAD4      6113       1    5045    5052    6939    6940          0.0000
CQUAD4      6114       1    5038    5045    6940    6941          0.0000
CQUAD4      6115       1    5031    5038    6941    6942          0.0000
CQUAD4      6116       1    5024    5031    6942    6943          0.0000
CQUAD4      6117       1    5017    5024    6943    6944          0.0000
CQUAD4      6118       1    5010    5017    6944    6945          0.0000
CQUAD4      6119       1    5003    5010    6945    6946          0.0000
CQUAD4      6120       1    4996    5003    6946    6947          0.0000
CQUAD4      6121       1    4989    4996    6947    6948          0.0000
CQUAD4      6122       1    4982    4989    6948    6949          0.0000
CQUAD4      6123       1    4975    4982    6949    6950          0.0000
CQUAD4      6124       1    4968    4975    6950    6951          0.0000
CQUAD4      6125       1    4961    4968    6951    6952          0.0000
CQUAD4      6126       1    4954    4961    6952    6953          0.0000
CQUAD4      6127       1    4947    4954    6953    6954          0.0000
CQUAD4      6128       1    4940    4947    6954    6955          0.0000
CQUAD4      6129       1    4933    4940    6955    6956          0.0000
CQUAD4      6130       1    4926    4933    6956    6957          0.0000
CQUAD4      6131       1    4919    4926    6957    6958          0.0000
CQUAD4      6132       1    4912    4919    6958    6959          0.0000
CQUAD4      6133       1    4905    4912    6959    6960          0.0000
CQUAD4      6134       1    4898    4905    6960    6961          0.0000
CQUAD4      6135       1    4891    4898    6961    6962          0.0000
CQUAD4      6136       1    4884    4891    6962    6963          0.0000
CQUAD4      6137       1    4877    4884    6963    6964          0.0000
CQUAD4      6138       1    4870    4877    6964    6965          0.0000
CQUAD4      6139       1    4863    4870    6965    6966          0.0000
CQUAD4      6140       1    4856    4863    6966    6967          0.0000
CQUAD4      6141       1    4849    4856    6967    6968          0.0000
CQUAD4      6142       1    4842    4849    6968    6969          0.0000
CQUAD4      6143       1    6970    4842    6969    7159          0.0000
CQUAD4      6144       1    6971    4841    4842    6970          0.0000
CQUAD4      6145       1    6972    4840    4841    6971          0.0000
CQUAD4      6146       1    6973    4839    4840    6972          0.0000
CQUAD4      6147       1    6974    4838    4839    6973          0.0000
CQUAD4      6148       1    6975    4837    4838    6974          0.0000
CQUAD4      6149       1    6976    4836    4837    6975          0.0000
CQUAD4      6150       1    5984    5989    5990    5985          0.0000
CQUAD4      6151       1    5985    5990    5991    5986          0.0000
CQUAD4      6152       1    5986    5991    5992    5987          0.0000
CQUAD4      6153       1    5987    5992    5993    5988          0.0000
CQUAD4      6154       1    5989    5994    5995    5990          0.0000
CQUAD4      6155       1    5990    5995    5996    5991          0.0000
CQUAD4      6156       1    5991    5996    5997    5992          0.0000
CQUAD4      6157       1    5992    5997    5998    5993          0.0000
CQUAD4      6158       1    5994    5999    6000    5995          0.0000
CQUAD4      6159       1    5995    6000    6001    5996          0.0000
CQUAD4      6160       1    5996    6001    6002    5997          0.0000
CQUAD4      6161       1    5997    6002    6003    5998          0.0000
CQUAD4      6162       1    5999    6004    6005    6000          0.0000
CQUAD4      6163       1    6000    6005    6006    6001          0.0000
CQUAD4      6164       1    6001    6006    6007    6002          0.0000
CQUAD4      6165       1    6002    6007    6008    6003          0.0000
CQUAD4      6166       1    6004    6009    6010    6005          0.0000
CQUAD4      6167       1    6005    6010    6011    6006          0.0000
CQUAD4      6168       1    6006    6011    6012    6007          0.0000
CQUAD4      6169       1    6007    6012    6013    6008          0.0000
CQUAD4      6170       1    6009    6014    6015    6010          0.0000
CQUAD4      6171       1    6010    6015    6016    6011          0.0000
CQUAD4      6172       1    6011    6016    6017    6012          0.0000
CQUAD4      6173       1    6012    6017    6018    6013          0.0000
CQUAD4      6174       1    6014    6019    6020    6015          0.0000
CQUAD4      6175       1    6015    6020    6021    6016          0.0000
CQUAD4      6176       1    6016    6021    6022    6017          0.0000
CQUAD4      6177       1    6017    6022    6023    6018          0.0000
CQUAD4      6178       1    6019    6024    6025    6020          0.0000
CQUAD4      6179       1    6020    6025    6026    6021          0.0000
CQUAD4      6180       1    6021    6026    6027    6022          0.0000
CQUAD4      6181       1    6022    6027    6028    6023          0.0000
CQUAD4      6182       1    6024    6029    6030    6025          0.0000
CQUAD4      6183       1    6025    6030    6031    6026          0.0000
CQUAD4      6184       1    6026    6031    6032    6027          0.0000
CQUAD4      6185       1    6027    6032    6033    6028          0.0000
CQUAD4      6186       1    6029    6034    6035    6030          0.0000
CQUAD4      6187       1    6030    6035    6036    6031          0.0000
CQUAD4      6188       1    6031    6036    6037    6032          0.0000
CQUAD4      6189       1    6032    6037    6038    6033          0.0000
CQUAD4      6190       1    6034    6039    6040    6035          0.0000
CQUAD4      6191       1    6035    6040    6041    6036          0.0000
CQUAD4      6192       1    6036    6041    6042    6037          0.0000
CQUAD4      6193       1    6037    6042    6043    6038          0.0000
CQUAD4      6194       1    6039    6044    6045    6040          0.0000
CQUAD4      6195       1    6040    6045    6046    6041          0.0000
CQUAD4      6196       1    6041    6046    6047    6042          0.0000
CQUAD4      6197       1    6042    6047    6048    6043          0.0000
CQUAD4      6198       1    6044    6049    6050    6045          0.0000
CQUAD4      6199       1    6045    6050    6051    6046          0.0000
CQUAD4      6200       1    6046    6051    6052    6047          0.0000
CQUAD4      6201       1    6047    6052    6053    6048          0.0000
CQUAD4      6202       1    6049    6054    6055    6050          0.0000
CQUAD4      6203       1    6050    6055    6056    6051          0.0000
CQUAD4      6204       1    6051    6056    6057    6052          0.0000
CQUAD4      6205       1    6052    6057    6058    6053          0.0000
CQUAD4      6206       1    6054    6059    6060    6055          0.0000
CQUAD4      6207       1    6055    6060    6061    6056          0.0000
CQUAD4      6208       1    6056    6061    6062    6057          0.0000
CQUAD4      6209       1    6057    6062    6063    6058          0.0000
CQUAD4      6210       1    6059    6064    6065    6060          0.0000
CQUAD4      6211       1    6060    6065    6066    6061          0.0000
CQUAD4      6212       1    6061    6066    6067    6062          0.0000
CQUAD4      6213       1    6062    6067    6068    6063          0.0000
CQUAD4      6214       1    6064    6069    6070    6065          0.0000
CQUAD4      6215       1    6065    6070    6071    6066          0.0000
CQUAD4      6216       1    6066    6071    6072    6067          0.0000
CQUAD4      6217       1    6067    6072    6073    6068          0.0000
CQUAD4      6218       1    6069    6074    6075    6070          0.0000
CQUAD4      6219       1    6070    6075    6076    6071          0.0000
CQUAD4      6220       1    6071    6076    6077    6072          0.0000
CQUAD4      6221       1    6072    6077    6078    6073          0.0000
CQUAD4      6222       1    6074    6079    6080    6075          0.0000
CQUAD4      6223       1    6075    6080    6081    6076          0.0000
CQUAD4      6224       1    6076    6081    6082    6077          0.0000
CQUAD4      6225       1    6077    6082    6083    6078          0.0000
CQUAD4      6226       1    6079    6084    6085    6080          0.0000
CQUAD4      6227       1    6080    6085    6086    6081          0.0000
CQUAD4      6228       1    6081    6086    6087    6082          0.0000
CQUAD4      6229       1    6082    6087    6088    6083          0.0000
CQUAD4      6230       1    6084    6089    6090    6085          0.0000
CQUAD4      6231       1    6085    6090    6091    6086          0.0000
CQUAD4      6232       1    6086    6091    6092    6087          0.0000
CQUAD4      6233       1    6087    6092    6093    6088          0.0000
CQUAD4      6234       1    6089    6094    6095    6090          0.0000
CQUAD4      6235       1    6090    6095    6096    6091          0.0000
CQUAD4      6236       1    6091    6096    6097    6092          0.0000
CQUAD4      6237       1    6092    6097    6098    6093          0.0000
CQUAD4      6238       1    6094    6099    6100    6095          0.0000
CQUAD4      6239       1    6095    6100    6101    6096          0.0000
CQUAD4      6240       1    6096    6101    6102    6097          0.0000
CQUAD4      6241       1    6097    6102    6103    6098          0.0000
CQUAD4      6242       1    6099    6104    6105    6100          0.0000
CQUAD4      6243       1    6100    6105    6106    6101          0.0000
CQUAD4      6244       1    6101    6106    6107    6102          0.0000
CQUAD4      6245       1    6102    6107    6108    6103          0.0000
CQUAD4      6246       1    6104    6109    6110    6105          0.0000
CQUAD4      6247       1    6105    6110    6111    6106          0.0000
CQUAD4      6248       1    6106    6111    6112    6107          0.0000
CQUAD4      6249       1    6107    6112    6113    6108          0.0000
CQUAD4      6250       1    6109    6114    6115    6110          0.0000
CQUAD4      6251       1    6110    6115    6116    6111          0.0000
CQUAD4      6252       1    6111    6116    6117    6112          0.0000
CQUAD4      6253       1    6112    6117    6118    6113          0.0000
CQUAD4      6254       1    6114    6119    6120    6115          0.0000
CQUAD4      6255       1    6115    6120    6121    6116          0.0000
CQUAD4      6256       1    6116    6121    6122    6117          0.0000
CQUAD4      6257       1    6117    6122    6123    6118          0.0000
CQUAD4      6258       1    6119    6124    6125    6120          0.0000
CQUAD4      6259       1    6120    6125    6126    6121          0.0000
CQUAD4      6260       1    6121    6126    6127    6122          0.0000
CQUAD4      6261       1    6122    6127    6128    6123          0.0000
CQUAD4      6262       1    6124    6129    6130    6125          0.0000
CQUAD4      6263       1    6125    6130    6131    6126          0.0000
CQUAD4      6264       1    6126    6131    6132    6127          0.0000
CQUAD4      6265       1    6127    6132    6133    6128          0.0000
CQUAD4      6266       1    6129    6134    6135    6130          0.0000
CQUAD4      6267       1    6130    6135    6136    6131          0.0000
CQUAD4      6268       1    6131    6136    6137    6132          0.0000
CQUAD4      6269       1    6132    6137    6138    6133          0.0000
CQUAD4      6270       1    6134    6139    6140    6135          0.0000
CQUAD4      6271       1    6135    6140    6141    6136          0.0000
CQUAD4      6272       1    6136    6141    6142    6137          0.0000
CQUAD4      6273       1    6137    6142    6143    6138          0.0000
CQUAD4      6274       1    6139    6144    6145    6140          0.0000
CQUAD4      6275       1    6140    6145    6146    6141          0.0000
CQUAD4      6276       1    6141    6146    6147    6142          0.0000
CQUAD4      6277       1    6142    6147    6148    6143          0.0000
CQUAD4      6278       1    6144    6149    6150    6145          0.0000
CQUAD4      6279       1    6145    6150    6151    6146          0.0000
CQUAD4      6280       1    6146    6151    6152    6147          0.0000
CQUAD4      6281       1    6147    6152    6153    6148          0.0000
CQUAD4      6282       1    6149    6154    6155    6150          0.0000
CQUAD4      6283       1    6150    6155    6156    6151          0.0000
CQUAD4      6284       1    6151    6156    6157    6152          0.0000
CQUAD4      6285       1    6152    6157    6158    6153          0.0000
CQUAD4      6286       1    6154    6159    6160    6155          0.0000
CQUAD4      6287       1    6155    6160    6161    6156          0.0000
CQUAD4      6288       1    6156    6161    6162    6157          0.0000
CQUAD4      6289       1    6157    6162    6163    6158          0.0000
CQUAD4      6290       1    6159    6164    6165    6160          0.0000
CQUAD4      6291       1    6160    6165    6166    6161          0.0000
CQUAD4      6292       1    6161    6166    6167    6162          0.0000
CQUAD4      6293       1    6162    6167    6168    6163          0.0000
CQUAD4      6294       1    6164    6169    6170    6165          0.0000
CQUAD4      6295       1    6165    6170    6171    6166          0.0000
CQUAD4      6296       1    6166    6171    6172    6167          0.0000
CQUAD4      6297       1    6167    6172    6173    6168          0.0000
CQUAD4      6298       1    6169    6174    6175    6170          0.0000
CQUAD4      6299       1    6170    6175    6176    6171          0.0000
CQUAD4      6300       1    6171    6176    6177    6172          0.0000
CQUAD4      6301       1    6172    6177    6178    6173          0.0000
CQUAD4      6302       1    6174    6179    6180    6175          0.0000
CQUAD4      6303       1    6175    6180    6181    6176          0.0000
CQUAD4      6304       1    6176    6181    6182    6177          0.0000
CQUAD4      6305       1    6177    6182    6183    6178          0.0000
CQUAD4      6306       1    6179    6184    6185    6180          0.0000
CQUAD4      6307       1    6180    6185    6186    6181          0.0000
CQUAD4      6308       1    6181    6186    6187    6182          0.0000
CQUAD4      6309       1    6182    6187    6188    6183          0.0000
CQUAD4      6310       1    6184    6189    6190    6185          0.0000
CQUAD4      6311       1    6185    6190    6191    6186          0.0000
CQUAD4      6312       1    6186    6191    6192    6187          0.0000
CQUAD4      6313       1    6187    6192    6193    6188          0.0000
CQUAD4      6314       1    6189    6194    6195    6190          0.0000
CQUAD4      6315       1    6190    6195    6196    6191          0.0000
CQUAD4      6316       1    6191    6196    6197    6192          0.0000
CQUAD4      6317       1    6192    6197    6198    6193          0.0000
CQUAD4      6318       1    6194    6199    6200    6195          0.0000
CQUAD4      6319       1    6195    6200    6201    6196          0.0000
CQUAD4      6320       1    6196    6201    6202    6197          0.0000
CQUAD4      6321       1    6197    6202    6203    6198          0.0000
CQUAD4      6322       1    6199    6204    6205    6200          0.0000
CQUAD4      6323       1    6200    6205    6206    6201          0.0000
CQUAD4      6324       1    6201    6206    6207    6202          0.0000
CQUAD4      6325       1    6202    6207    6208    6203          0.0000
CQUAD4      6326       1    6204    6209    6210    6205          0.0000
CQUAD4      6327       1    6205    6210    6211    6206          0.0000
CQUAD4      6328       1    6206    6211    6212    6207          0.0000
CQUAD4      6329       1    6207    6212    6213    6208          0.0000
CQUAD4      6330       1    6209    6214    6215    6210          0.0000
CQUAD4      6331       1    6210    6215    6216    6211          0.0000
CQUAD4      6332       1    6211    6216    6217    6212          0.0000
CQUAD4      6333       1    6212    6217    6218    6213          0.0000
CQUAD4      6334       1    6214    6219    6220    6215          0.0000
CQUAD4      6335       1    6215    6220    6221    6216          0.0000
CQUAD4      6336       1    6216    6221    6222    6217          0.0000
CQUAD4      6337       1    6217    6222    6223    6218          0.0000
CQUAD4      6338       1    6219    6224    6225    6220          0.0000
CQUAD4      6339       1    6220    6225    6226    6221          0.0000
CQUAD4      6340       1    6221    6226    6227    6222          0.0000
CQUAD4      6341       1    6222    6227    6228    6223          0.0000
CQUAD4      6342       1    6224    6229    6230    6225          0.0000
CQUAD4      6343       1    6225    6230    6231    6226          0.0000
CQUAD4      6344       1    6226    6231    6232    6227          0.0000
CQUAD4      6345       1    6227    6232    6233    6228          0.0000
CQUAD4      6346       1    6229    6234    6235    6230          0.0000
CQUAD4      6347       1    6230    6235    6236    6231          0.0000
CQUAD4      6348       1    6231    6236    6237    6232          0.0000
CQUAD4      6349       1    6232    6237    6238    6233          0.0000
CQUAD4      6350       1    6234    6239    6240    6235          0.0000
CQUAD4      6351       1    6235    6240    6241    6236          0.0000
CQUAD4      6352       1    6236    6241    6242    6237          0.0000
CQUAD4      6353       1    6237    6242    6243    6238          0.0000
CQUAD4      6354       1    6239    6244    6245    6240          0.0000
CQUAD4      6355       1    6240    6245    6246    6241          0.0000
CQUAD4      6356       1    6241    6246    6247    6242          0.0000
CQUAD4      6357       1    6242    6247    6248    6243          0.0000
CQUAD4      6358       1    6244    6249    6250    6245          0.0000
CQUAD4      6359       1    6245    6250    6251    6246          0.0000
CQUAD4      6360       1    6246    6251    6252    6247          0.0000
CQUAD4      6361       1    6247    6252    6253    6248          0.0000
CQUAD4      6362       1    6249    6254    6255    6250          0.0000
CQUAD4      6363       1    6250    6255    6256    6251          0.0000
CQUAD4      6364       1    6251    6256    6257    6252          0.0000
CQUAD4      6365       1    6252    6257    6258    6253          0.0000
CQUAD4      6366       1    6254    6259    6260    6255          0.0000
CQUAD4      6367       1    6255    6260    6261    6256          0.0000
CQUAD4      6368       1    6256    6261    6262    6257          0.0000
CQUAD4      6369       1    6257    6262    6263    6258          0.0000
CQUAD4      6370       1    6259    6264    6265    6260          0.0000
CQUAD4      6371       1    6260    6265    6266    6261          0.0000
CQUAD4      6372       1    6261    6266    6267    6262          0.0000
CQUAD4      6373       1    6262    6267    6268    6263          0.0000
CQUAD4      6374       1    6264    6269    6270    6265          0.0000
CQUAD4      6375       1    6265    6270    6271    6266          0.0000
CQUAD4      6376       1    6266    6271    6272    6267          0.0000
CQUAD4      6377       1    6267    6272    6273    6268          0.0000
CQUAD4      6378       1    6269    6274    6275    6270          0.0000
CQUAD4      6379       1    6270    6275    6276    6271          0.0000
CQUAD4      6380       1    6271    6276    6277    6272          0.0000
CQUAD4      6381       1    6272    6277    6278    6273          0.0000
CQUAD4      6382       1    6274    6279    6280    6275          0.0000
CQUAD4      6383       1    6275    6280    6281    6276          0.0000
CQUAD4      6384       1    6276    6281    6282    6277          0.0000
CQUAD4      6385       1    6277    6282    6283    6278          0.0000
CQUAD4      6386       1    6279    6284    6285    6280          0.0000
CQUAD4      6387       1    6280    6285    6286    6281          0.0000
CQUAD4      6388       1    6281    6286    6287    6282          0.0000
CQUAD4      6389       1    6282    6287    6288    6283          0.0000
CQUAD4      6390       1    6284    6289    6290    6285          0.0000
CQUAD4      6391       1    6285    6290    6291    6286          0.0000
CQUAD4      6392       1    6286    6291    6292    6287          0.0000
CQUAD4      6393       1    6287    6292    6293    6288          0.0000
CQUAD4      6394       1    6289    6294    6295    6290          0.0000
CQUAD4      6395       1    6290    6295    6296    6291          0.0000
CQUAD4      6396       1    6291    6296    6297    6292          0.0000
CQUAD4      6397       1    6292    6297    6298    6293          0.0000
CQUAD4      6398       1    6294    6299    6300    6295          0.0000
CQUAD4      6399       1    6295    6300    6301    6296          0.0000
CQUAD4      6400       1    6296    6301    6302    6297          0.0000
CQUAD4      6401       1    6297    6302    6303    6298          0.0000
CQUAD4      6402       1    6299    6304    6305    6300          0.0000
CQUAD4      6403       1    6300    6305    6306    6301          0.0000
CQUAD4      6404       1    6301    6306    6307    6302          0.0000
CQUAD4      6405       1    6302    6307    6308    6303          0.0000
CQUAD4      6406       1    6304    6309    6310    6305          0.0000
CQUAD4      6407       1    6305    6310    6311    6306          0.0000
CQUAD4      6408       1    6306    6311    6312    6307          0.0000
CQUAD4      6409       1    6307    6312    6313    6308          0.0000
CQUAD4      6410       1    6309    6314    6315    6310          0.0000
CQUAD4      6411       1    6310    6315    6316    6311          0.0000
CQUAD4      6412       1    6311    6316    6317    6312          0.0000
CQUAD4      6413       1    6312    6317    6318    6313          0.0000
CQUAD4      6414       1    6314    6319    6320    6315          0.0000
CQUAD4      6415       1    6315    6320    6321    6316          0.0000
CQUAD4      6416       1    6316    6321    6322    6317          0.0000
CQUAD4      6417       1    6317    6322    6323    6318          0.0000
CQUAD4      6418       1    6319    6324    6325    6320          0.0000
CQUAD4      6419       1    6320    6325    6326    6321          0.0000
CQUAD4      6420       1    6321    6326    6327    6322          0.0000
CQUAD4      6421       1    6322    6327    6328    6323          0.0000
CQUAD4      6422       1    6324    6329    6330    6325          0.0000
CQUAD4      6423       1    6325    6330    6331    6326          0.0000
CQUAD4      6424       1    6326    6331    6332    6327          0.0000
CQUAD4      6425       1    6327    6332    6333    6328          0.0000
CQUAD4      6426       1    6329    6334    6335    6330          0.0000
CQUAD4      6427       1    6330    6335    6336    6331          0.0000
CQUAD4      6428       1    6331    6336    6337    6332          0.0000
CQUAD4      6429       1    6332    6337    6338    6333          0.0000
CQUAD4      6430       1    6334    6339    6340    6335          0.0000
CQUAD4      6431       1    6335    6340    6341    6336          0.0000
CQUAD4      6432       1    6336    6341    6342    6337          0.0000
CQUAD4      6433       1    6337    6342    6343    6338          0.0000
CQUAD4      6434       1    6339    6344    6345    6340          0.0000
CQUAD4      6435       1    6340    6345    6346    6341          0.0000
CQUAD4      6436       1    6341    6346    6347    6342          0.0000
CQUAD4      6437       1    6342    6347    6348    6343          0.0000
CQUAD4      6438       1    6344    6349    6350    6345          0.0000
CQUAD4      6439       1    6345    6350    6351    6346          0.0000
CQUAD4      6440       1    6346    6351    6352    6347          0.0000
CQUAD4      6441       1    6347    6352    6353    6348          0.0000
CQUAD4      6442       1    6349    6354    6355    6350          0.0000
CQUAD4      6443       1    6350    6355    6356    6351          0.0000
CQUAD4      6444       1    6351    6356    6357    6352          0.0000
CQUAD4      6445       1    6352    6357    6358    6353          0.0000
CQUAD4      6446       1    6354    6359    6360    6355          0.0000
CQUAD4      6447       1    6355    6360    6361    6356          0.0000
CQUAD4      6448       1    6356    6361    6362    6357          0.0000
CQUAD4      6449       1    6357    6362    6363    6358          0.0000
CQUAD4      6450       1    6359    6364    6365    6360          0.0000
CQUAD4      6451       1    6360    6365    6366    6361          0.0000
CQUAD4      6452       1    6361    6366    6367    6362          0.0000
CQUAD4      6453       1    6362    6367    6368    6363          0.0000
CQUAD4      6454       1    6364    6369    6370    6365          0.0000
CQUAD4      6455       1    6365    6370    6371    6366          0.0000
CQUAD4      6456       1    6366    6371    6372    6367          0.0000
CQUAD4      6457       1    6367    6372    6373    6368          0.0000
CQUAD4      6458       1    6369    6374    6375    6370          0.0000
CQUAD4      6459       1    6370    6375    6376    6371          0.0000
CQUAD4      6460       1    6371    6376    6377    6372          0.0000
CQUAD4      6461       1    6372    6377    6378    6373          0.0000
CQUAD4      6462       1    6374    6379    6380    6375          0.0000
CQUAD4      6463       1    6375    6380    6381    6376          0.0000
CQUAD4      6464       1    6376    6381    6382    6377          0.0000
CQUAD4      6465       1    6377    6382    6383    6378          0.0000
CQUAD4      6466       1    6379    6384    6385    6380          0.0000
CQUAD4      6467       1    6380    6385    6386    6381          0.0000
CQUAD4      6468       1    6381    6386    6387    6382          0.0000
CQUAD4      6469       1    6382    6387    6388    6383          0.0000
CQUAD4      6470       1    6384    6389    6390    6385          0.0000
CQUAD4      6471       1    6385    6390    6391    6386          0.0000
CQUAD4      6472       1    6386    6391    6392    6387          0.0000
CQUAD4      6473       1    6387    6392    6393    6388          0.0000
CQUAD4      6474       1    6389    6394    6395    6390          0.0000
CQUAD4      6475       1    6390    6395    6396    6391          0.0000
CQUAD4      6476       1    6391    6396    6397    6392          0.0000
CQUAD4      6477       1    6392    6397    6398    6393          0.0000
CQUAD4      6478       1    6394    6399    6400    6395          0.0000
CQUAD4      6479       1    6395    6400    6401    6396          0.0000
CQUAD4      6480       1    6396    6401    6402    6397          0.0000
CQUAD4      6481       1    6397    6402    6403    6398          0.0000
CQUAD4      6482       1    6399    6404    6405    6400          0.0000
CQUAD4      6483       1    6400    6405    6406    6401          0.0000
CQUAD4      6484       1    6401    6406    6407    6402          0.0000
CQUAD4      6485       1    6402    6407    6408    6403          0.0000
CQUAD4      6486       1    6404    6409    6410    6405          0.0000
CQUAD4      6487       1    6405    6410    6411    6406          0.0000
CQUAD4      6488       1    6406    6411    6412    6407          0.0000
CQUAD4      6489       1    6407    6412    6413    6408          0.0000
CQUAD4      6490       1    6409    6414    6415    6410          0.0000
CQUAD4      6491       1    6410    6415    6416    6411          0.0000
CQUAD4      6492       1    6411    6416    6417    6412          0.0000
CQUAD4      6493       1    6412    6417    6418    6413          0.0000
CQUAD4      6494       1    6414    6419    6420    6415          0.0000
CQUAD4      6495       1    6415    6420    6421    6416          0.0000
CQUAD4      6496       1    6416    6421    6422    6417          0.0000
CQUAD4      6497       1    6417    6422    6423    6418          0.0000
CQUAD4      6498       1    6419    6424    6425    6420          0.0000
CQUAD4      6499       1    6420    6425    6426    6421          0.0000
CQUAD4      6500       1    6421    6426    6427    6422          0.0000
CQUAD4      6501       1    6422    6427    6428    6423          0.0000
CQUAD4      6502       1    6424    6429    6430    6425          0.0000
CQUAD4      6503       1    6425    6430    6431    6426          0.0000
CQUAD4      6504       1    6426    6431    6432    6427          0.0000
CQUAD4      6505       1    6427    6432    6433    6428          0.0000
CQUAD4      6506       1    6429    6434    6435    6430          0.0000
CQUAD4      6507       1    6430    6435    6436    6431          0.0000
CQUAD4      6508       1    6431    6436    6437    6432          0.0000
CQUAD4      6509       1    6432    6437    6438    6433          0.0000
CQUAD4      6510       1    6434    6439    6440    6435          0.0000
CQUAD4      6511       1    6435    6440    6441    6436          0.0000
CQUAD4      6512       1    6436    6441    6442    6437          0.0000
CQUAD4      6513       1    6437    6442    6443    6438          0.0000
CQUAD4      6514       1    6439    6444    6445    6440          0.0000
CQUAD4      6515       1    6440    6445    6446    6441          0.0000
CQUAD4      6516       1    6441    6446    6447    6442          0.0000
CQUAD4      6517       1    6442    6447    6448    6443          0.0000
CQUAD4      6518       1    6444    6449    6450    6445          0.0000
CQUAD4      6519       1    6445    6450    6451    6446          0.0000
CQUAD4      6520       1    6446    6451    6452    6447          0.0000
CQUAD4      6521       1    6447    6452    6453    6448          0.0000
CQUAD4      6522       1    6449    6454    6455    6450          0.0000
CQUAD4      6523       1    6450    6455    6456    6451          0.0000
CQUAD4      6524       1    6451    6456    6457    6452          0.0000
CQUAD4      6525       1    6452    6457    6458    6453          0.0000
CQUAD4      6526       1    6454    6459    6460    6455          0.0000
CQUAD4      6527       1    6455    6460    6461    6456          0.0000
CQUAD4      6528       1    6456    6461    6462    6457          0.0000
CQUAD4      6529       1    6457    6462    6463    6458          0.0000
CQUAD4      6530       1    6459    6464    6465    6460          0.0000
CQUAD4      6531       1    6460    6465    6466    6461          0.0000
CQUAD4      6532       1    6461    6466    6467    6462          0.0000
CQUAD4      6533       1    6462    6467    6468    6463          0.0000
CQUAD4      6534       1    6464    6469    6470    6465          0.0000
CQUAD4      6535       1    6465    6470    6471    6466          0.0000
CQUAD4      6536       1    6466    6471    6472    6467          0.0000
CQUAD4      6537       1    6467    6472    6473    6468          0.0000
CQUAD4      6538       1    6469    6474    6475    6470          0.0000
CQUAD4      6539       1    6470    6475    6476    6471          0.0000
CQUAD4      6540       1    6471    6476    6477    6472          0.0000
CQUAD4      6541       1    6472    6477    6478    6473          0.0000
CQUAD4      6542       1    6474    6479    6480    6475          0.0000
CQUAD4      6543       1    6475    6480    6481    6476          0.0000
CQUAD4      6544       1    6476    6481    6482    6477          0.0000
CQUAD4      6545       1    6477    6482    6483    6478          0.0000
CQUAD4      6546       1    6479    6484    6485    6480          0.0000
CQUAD4      6547       1    6480    6485    6486    6481          0.0000
CQUAD4      6548       1    6481    6486    6487    6482          0.0000
CQUAD4      6549       1    6482    6487    6488    6483          0.0000
CQUAD4      6550       1    6484    6489    6490    6485          0.0000
CQUAD4      6551       1    6485    6490    6491    6486          0.0000
CQUAD4      6552       1    6486    6491    6492    6487          0.0000
CQUAD4      6553       1    6487    6492    6493    6488          0.0000
CQUAD4      6554       1    6489    6494    6495    6490          0.0000
CQUAD4      6555       1    6490    6495    6496    6491          0.0000
CQUAD4      6556       1    6491    6496    6497    6492          0.0000
CQUAD4      6557       1    6492    6497    6498    6493          0.0000
CQUAD4      6558       1    6494    6499    6500    6495          0.0000
CQUAD4      6559       1    6495    6500    6501    6496          0.0000
CQUAD4      6560       1    6496    6501    6502    6497          0.0000
CQUAD4      6561       1    6497    6502    6503    6498          0.0000
CQUAD4      6562       1    6499    6504    6505    6500          0.0000
CQUAD4      6563       1    6500    6505    6506    6501          0.0000
CQUAD4      6564       1    6501    6506    6507    6502          0.0000
CQUAD4      6565       1    6502    6507    6508    6503          0.0000
CQUAD4      6566       1    6504    6509    6510    6505          0.0000
CQUAD4      6567       1    6505    6510    6511    6506          0.0000
CQUAD4      6568       1    6506    6511    6512    6507          0.0000
CQUAD4      6569       1    6507    6512    6513    6508          0.0000
CQUAD4      6570       1    6509    6514    6515    6510          0.0000
CQUAD4      6571       1    6510    6515    6516    6511          0.0000
CQUAD4      6572       1    6511    6516    6517    6512          0.0000
CQUAD4      6573       1    6512    6517    6518    6513          0.0000
CQUAD4      6574       1    6514    6519    6520    6515          0.0000
CQUAD4      6575       1    6515    6520    6521    6516          0.0000
CQUAD4      6576       1    6516    6521    6522    6517          0.0000
CQUAD4      6577       1    6517    6522    6523    6518          0.0000
CQUAD4      6578       1    6519    6524    6525    6520          0.0000
CQUAD4      6579       1    6520    6525    6526    6521          0.0000
CQUAD4      6580       1    6521    6526    6527    6522          0.0000
CQUAD4      6581       1    6522    6527    6528    6523          0.0000
CQUAD4      6582       1    6524    6529    6530    6525          0.0000
CQUAD4      6583       1    6525    6530    6531    6526          0.0000
CQUAD4      6584       1    6526    6531    6532    6527          0.0000
CQUAD4      6585       1    6527    6532    6533    6528          0.0000
CQUAD4      6586       1    6529    6534    6535    6530          0.0000
CQUAD4      6587       1    6530    6535    6536    6531          0.0000
CQUAD4      6588       1    6531    6536    6537    6532          0.0000
CQUAD4      6589       1    6532    6537    6538    6533          0.0000
CQUAD4      6590       1    6534    6539    6540    6535          0.0000
CQUAD4      6591       1    6535    6540    6541    6536          0.0000
CQUAD4      6592       1    6536    6541    6542    6537          0.0000
CQUAD4      6593       1    6537    6542    6543    6538          0.0000
CQUAD4      6594       1    6539    6544    6545    6540          0.0000
CQUAD4      6595       1    6540    6545    6546    6541          0.0000
CQUAD4      6596       1    6541    6546    6547    6542          0.0000
CQUAD4      6597       1    6542    6547    6548    6543          0.0000
CQUAD4      6598       1    6544    6549    6550    6545          0.0000
CQUAD4      6599       1    6545    6550    6551    6546          0.0000
CQUAD4      6600       1    6546    6551    6552    6547          0.0000
CQUAD4      6601       1    6547    6552    6553    6548          0.0000
CQUAD4      6602       1    6549    6554    6555    6550          0.0000
CQUAD4      6603       1    6550    6555    6556    6551          0.0000
CQUAD4      6604       1    6551    6556    6557    6552          0.0000
CQUAD4      6605       1    6552    6557    6558    6553          0.0000
CQUAD4      6606       1    6554    6559    6560    6555          0.0000
CQUAD4      6607       1    6555    6560    6561    6556          0.0000
CQUAD4      6608       1    6556    6561    6562    6557          0.0000
CQUAD4      6609       1    6557    6562    6563    6558          0.0000
CQUAD4      6610       1    6559    6564    6565    6560          0.0000
CQUAD4      6611       1    6560    6565    6566    6561          0.0000
CQUAD4      6612       1    6561    6566    6567    6562          0.0000
CQUAD4      6613       1    6562    6567    6568    6563          0.0000
CQUAD4      6614       1    6564    6569    6570    6565          0.0000
CQUAD4      6615       1    6565    6570    6571    6566          0.0000
CQUAD4      6616       1    6566    6571    6572    6567          0.0000
CQUAD4      6617       1    6567    6572    6573    6568          0.0000
CQUAD4      6618       1    6569    6574    6575    6570          0.0000
CQUAD4      6619       1    6570    6575    6576    6571          0.0000
CQUAD4      6620       1    6571    6576    6577    6572          0.0000
CQUAD4      6621       1    6572    6577    6578    6573          0.0000
CQUAD4      6622       1    6574    6579    6580    6575          0.0000
CQUAD4      6623       1    6575    6580    6581    6576          0.0000
CQUAD4      6624       1    6576    6581    6582    6577          0.0000
CQUAD4      6625       1    6577    6582    6583    6578          0.0000
CQUAD4      6626       1    6579    6584    6585    6580          0.0000
CQUAD4      6627       1    6580    6585    6586    6581          0.0000
CQUAD4      6628       1    6581    6586    6587    6582          0.0000
CQUAD4      6629       1    6582    6587    6588    6583          0.0000
CQUAD4      6630       1    6584    6589    6590    6585          0.0000
CQUAD4      6631       1    6585    6590    6591    6586          0.0000
CQUAD4      6632       1    6586    6591    6592    6587          0.0000
CQUAD4      6633       1    6587    6592    6593    6588          0.0000
CQUAD4      6634       1    6589    6594    6595    6590          0.0000
CQUAD4      6635       1    6590    6595    6596    6591          0.0000
CQUAD4      6636       1    6591    6596    6597    6592          0.0000
CQUAD4      6637       1    6592    6597    6598    6593          0.0000
CQUAD4      6638       1    6594    6599    6600    6595          0.0000
CQUAD4      6639       1    6595    6600    6601    6596          0.0000
CQUAD4      6640       1    6596    6601    6602    6597          0.0000
CQUAD4      6641       1    6597    6602    6603    6598          0.0000
CQUAD4      6642       1    6599    6604    6605    6600          0.0000
CQUAD4      6643       1    6600    6605    6606    6601          0.0000
CQUAD4      6644       1    6601    6606    6607    6602          0.0000
CQUAD4      6645       1    6602    6607    6608    6603          0.0000
CQUAD4      6646       1    6604    6609    6610    6605          0.0000
CQUAD4      6647       1    6605    6610    6611    6606          0.0000
CQUAD4      6648       1    6606    6611    6612    6607          0.0000
CQUAD4      6649       1    6607    6612    6613    6608          0.0000
CQUAD4      6650       1    6609    6614    6615    6610          0.0000
CQUAD4      6651       1    6610    6615    6616    6611          0.0000
CQUAD4      6652       1    6611    6616    6617    6612          0.0000
CQUAD4      6653       1    6612    6617    6618    6613          0.0000
CQUAD4      6654       1    6614    6619    6620    6615          0.0000
CQUAD4      6655       1    6615    6620    6621    6616          0.0000
CQUAD4      6656       1    6616    6621    6622    6617          0.0000
CQUAD4      6657       1    6617    6622    6623    6618          0.0000
CQUAD4      6658       1    6619    6624    6625    6620          0.0000
CQUAD4      6659       1    6620    6625    6626    6621          0.0000
CQUAD4      6660       1    6621    6626    6627    6622          0.0000
CQUAD4      6661       1    6622    6627    6628    6623          0.0000
CQUAD4      6662       1    6624    6629    6630    6625          0.0000
CQUAD4      6663       1    6625    6630    6631    6626          0.0000
CQUAD4      6664       1    6626    6631    6632    6627          0.0000
CQUAD4      6665       1    6627    6632    6633    6628          0.0000
CQUAD4      6666       1    6629    6634    6635    6630          0.0000
CQUAD4      6667       1    6630    6635    6636    6631          0.0000
CQUAD4      6668       1    6631    6636    6637    6632          0.0000
CQUAD4      6669       1    6632    6637    6638    6633          0.0000
CQUAD4      6670       1    6634    6639    6640    6635          0.0000
CQUAD4      6671       1    6635    6640    6641    6636          0.0000
CQUAD4      6672       1    6636    6641    6642    6637          0.0000
CQUAD4      6673       1    6637    6642    6643    6638          0.0000
CQUAD4      6674       1    6639    6644    6645    6640          0.0000
CQUAD4      6675       1    6640    6645    6646    6641          0.0000
CQUAD4      6676       1    6641    6646    6647    6642          0.0000
CQUAD4      6677       1    6642    6647    6648    6643          0.0000
CQUAD4      6678       1    6644    6649    6650    6645          0.0000
CQUAD4      6679       1    6645    6650    6651    6646          0.0000
CQUAD4      6680       1    6646    6651    6652    6647          0.0000
CQUAD4      6681       1    6647    6652    6653    6648          0.0000
CQUAD4      6682       1    6649    6654    6655    6650          0.0000
CQUAD4      6683       1    6650    6655    6656    6651          0.0000
CQUAD4      6684       1    6651    6656    6657    6652          0.0000
CQUAD4      6685       1    6652    6657    6658    6653          0.0000
CQUAD4      6686       1    6654    6659    6660    6655          0.0000
CQUAD4      6687       1    6655    6660    6661    6656          0.0000
CQUAD4      6688       1    6656    6661    6662    6657          0.0000
CQUAD4      6689       1    6657    6662    6663    6658          0.0000
CQUAD4      6690       1    6659    6664    6665    6660          0.0000
CQUAD4      6691       1    6660    6665    6666    6661          0.0000
CQUAD4      6692       1    6661    6666    6667    6662          0.0000
CQUAD4      6693       1    6662    6667    6668    6663          0.0000
CQUAD4      6694       1    6664    6669    6670    6665          0.0000
CQUAD4      6695       1    6665    6670    6671    6666          0.0000
CQUAD4      6696       1    6666    6671    6672    6667          0.0000
CQUAD4      6697       1    6667    6672    6673    6668          0.0000
CQUAD4      6698       1    6669    6674    6675    6670          0.0000
CQUAD4      6699       1    6670    6675    6676    6671          0.0000
CQUAD4      6700       1    6671    6676    6677    6672          0.0000
CQUAD4      6701       1    6672    6677    6678    6673          0.0000
CQUAD4      6702       1    6674    6679    6680    6675          0.0000
CQUAD4      6703       1    6675    6680    6681    6676          0.0000
CQUAD4      6704       1    6676    6681    6682    6677          0.0000
CQUAD4      6705       1    6677    6682    6683    6678          0.0000
CQUAD4      6706       1    6679    6684    6685    6680          0.0000
CQUAD4      6707       1    6680    6685    6686    6681          0.0000
CQUAD4      6708       1    6681    6686    6687    6682          0.0000
CQUAD4      6709       1    6682    6687    6688    6683          0.0000
CQUAD4      6710       1    6684    6689    6690    6685          0.0000
CQUAD4      6711       1    6685    6690    6691    6686          0.0000
CQUAD4      6712       1    6686    6691    6692    6687          0.0000
CQUAD4      6713       1    6687    6692    6693    6688          0.0000
CQUAD4      6714       1    6689    6694    6695    6690          0.0000
CQUAD4      6715       1    6690    6695    6696    6691          0.0000
CQUAD4      6716       1    6691    6696    6697    6692          0.0000
CQUAD4      6717       1    6692    6697    6698    6693          0.0000
CQUAD4      6718       1    6694    6699    6700    6695          0.0000
CQUAD4      6719       1    6695    6700    6701    6696          0.0000
CQUAD4      6720       1    6696    6701    6702    6697          0.0000
CQUAD4      6721       1    6697    6702    6703    6698          0.0000
CQUAD4      6722       1    6699    6704    6705    6700          0.0000
CQUAD4      6723       1    6700    6705    6706    6701          0.0000
CQUAD4      6724       1    6701    6706    6707    6702          0.0000
CQUAD4      6725       1    6702    6707    6708    6703          0.0000
CQUAD4      6726       1    6704    6709    6710    6705          0.0000
CQUAD4      6727       1    6705    6710    6711    6706          0.0000
CQUAD4      6728       1    6706    6711    6712    6707          0.0000
CQUAD4      6729       1    6707    6712    6713    6708          0.0000
CQUAD4      6730       1    6709    6714    6715    6710          0.0000
CQUAD4      6731       1    6710    6715    6716    6711          0.0000
CQUAD4      6732       1    6711    6716    6717    6712          0.0000
CQUAD4      6733       1    6712    6717    6718    6713          0.0000
CQUAD4      6734       1    6714    6719    6720    6715          0.0000
CQUAD4      6735       1    6715    6720    6721    6716          0.0000
CQUAD4      6736       1    6716    6721    6722    6717          0.0000
CQUAD4      6737       1    6717    6722    6723    6718          0.0000
CQUAD4      6738       1    6719    6724    6725    6720          0.0000
CQUAD4      6739       1    6720    6725    6726    6721          0.0000
CQUAD4      6740       1    6721    6726    6727    6722          0.0000
CQUAD4      6741       1    6722    6727    6728    6723          0.0000
CQUAD4      6742       1    6724    6729    6730    6725          0.0000
CQUAD4      6743       1    6725    6730    6731    6726          0.0000
CQUAD4      6744       1    6726    6731    6732    6727          0.0000
CQUAD4      6745       1    6727    6732    6733    6728          0.0000
CQUAD4      6746       1    6729    6734    6735    6730          0.0000
CQUAD4      6747       1    6730    6735    6736    6731          0.0000
CQUAD4      6748       1    6731    6736    6737    6732          0.0000
CQUAD4      6749       1    6732    6737    6738    6733          0.0000
CQUAD4      6750       1    6734    6739    6740    6735          0.0000
CQUAD4      6751       1    6735    6740    6741    6736          0.0000
CQUAD4      6752       1    6736    6741    6742    6737          0.0000
CQUAD4      6753       1    6737    6742    6743    6738          0.0000
CQUAD4      6754       1    6739    6744    6745    6740          0.0000
CQUAD4      6755       1    6740    6745    6746    6741          0.0000
CQUAD4      6756       1    6741    6746    6747    6742          0.0000
CQUAD4      6757       1    6742    6747    6748    6743          0.0000
CQUAD4      6758       1    6744    6749    6750    6745          0.0000
CQUAD4      6759       1    6745    6750    6751    6746          0.0000
CQUAD4      6760       1    6746    6751    6752    6747          0.0000
CQUAD4      6761       1    6747    6752    6753    6748          0.0000
CQUAD4      6762       1    6749    6754    6755    6750          0.0000
CQUAD4      6763       1    6750    6755    6756    6751          0.0000
CQUAD4      6764       1    6751    6756    6757    6752          0.0000
CQUAD4      6765       1    6752    6757    6758    6753          0.0000
CQUAD4      6766       1    6754    6759    6760    6755          0.0000
CQUAD4      6767       1    6755    6760    6761    6756          0.0000
CQUAD4      6768       1    6756    6761    6762    6757          0.0000
CQUAD4      6769       1    6757    6762    6763    6758          0.0000
CQUAD4      6770       1    6759    6764    6765    6760          0.0000
CQUAD4      6771       1    6760    6765    6766    6761          0.0000
CQUAD4      6772       1    6761    6766    6767    6762          0.0000
CQUAD4      6773       1    6762    6767    6768    6763          0.0000
CQUAD4      6774       1    6764    6769    6770    6765          0.0000
CQUAD4      6775       1    6765    6770    6771    6766          0.0000
CQUAD4      6776       1    6766    6771    6772    6767          0.0000
CQUAD4      6777       1    6767    6772    6773    6768          0.0000
CQUAD4      6778       1    6769    6774    6775    6770          0.0000
CQUAD4      6779       1    6770    6775    6776    6771          0.0000
CQUAD4      6780       1    6771    6776    6777    6772          0.0000
CQUAD4      6781       1    6772    6777    6778    6773          0.0000
CQUAD4      6782       1    6774    6779    6780    6775          0.0000
CQUAD4      6783       1    6775    6780    6781    6776          0.0000
CQUAD4      6784       1    6776    6781    6782    6777          0.0000
CQUAD4      6785       1    6777    6782    6783    6778          0.0000
CQUAD4      6786       1    6779    6784    6785    6780          0.0000
CQUAD4      6787       1    6780    6785    6786    6781          0.0000
CQUAD4      6788       1    6781    6786    6787    6782          0.0000
CQUAD4      6789       1    6782    6787    6788    6783          0.0000
CQUAD4      6790       1    6784    6789    6790    6785          0.0000
CQUAD4      6791       1    6785    6790    6791    6786          0.0000
CQUAD4      6792       1    6786    6791    6792    6787          0.0000
CQUAD4      6793       1    6787    6792    6793    6788          0.0000
CQUAD4      6794       1    6789    6794    6795    6790          0.0000
CQUAD4      6795       1    6790    6795    6796    6791          0.0000
CQUAD4      6796       1    6791    6796    6797    6792          0.0000
CQUAD4      6797       1    6792    6797    6798    6793          0.0000
CQUAD4      6798       1    6794    6799    6800    6795          0.0000
CQUAD4      6799       1    6795    6800    6801    6796          0.0000
CQUAD4      6800       1    6796    6801    6802    6797          0.0000
CQUAD4      6801       1    6797    6802    6803    6798          0.0000
CQUAD4      6802       1    4670    4506    5984    7148          0.0000
CQUAD4      6803       1    4506    4507    5989    5984          0.0000
CQUAD4      6804       1    4507    4508    5994    5989          0.0000
CQUAD4      6805       1    4508    4509    5999    5994          0.0000
CQUAD4      6806       1    4509    4510    6004    5999          0.0000
CQUAD4      6807       1    4510    4511    6009    6004          0.0000
CQUAD4      6808       1    4511    4512    6014    6009          0.0000
CQUAD4      6809       1    4512    4513    6019    6014          0.0000
CQUAD4      6810       1    4513    4514    6024    6019          0.0000
CQUAD4      6811       1    4514    4515    6029    6024          0.0000
CQUAD4      6812       1    4515    4516    6034    6029          0.0000
CQUAD4      6813       1    4516    4517    6039    6034          0.0000
CQUAD4      6814       1    4517    4518    6044    6039          0.0000
CQUAD4      6815       1    4518    4519    6049    6044          0.0000
CQUAD4      6816       1    4519    4520    6054    6049          0.0000
CQUAD4      6817       1    4520    4521    6059    6054          0.0000
CQUAD4      6818       1    4521    4522    6064    6059          0.0000
CQUAD4      6819       1    4522    4523    6069    6064          0.0000
CQUAD4      6820       1    4523    4524    6074    6069          0.0000
CQUAD4      6821       1    4524    4525    6079    6074          0.0000
CQUAD4      6822       1    4525    4526    6084    6079          0.0000
CQUAD4      6823       1    4526    4527    6089    6084          0.0000
CQUAD4      6824       1    4527    4528    6094    6089          0.0000
CQUAD4      6825       1    4528    4529    6099    6094          0.0000
CQUAD4      6826       1    4529    4530    6104    6099          0.0000
CQUAD4      6827       1    4530    4531    6109    6104          0.0000
CQUAD4      6828       1    4531    4532    6114    6109          0.0000
CQUAD4      6829       1    4532    4533    6119    6114          0.0000
CQUAD4      6830       1    4533    4534    6124    6119          0.0000
CQUAD4      6831       1    4534    4535    6129    6124          0.0000
CQUAD4      6832       1    4535    4536    6134    6129          0.0000
CQUAD4      6833       1    4536    4537    6139    6134          0.0000
CQUAD4      6834       1    4537    4538    6144    6139          0.0000
CQUAD4      6835       1    4538    4539    6149    6144          0.0000
CQUAD4      6836       1    4539    4540    6154    6149          0.0000
CQUAD4      6837       1    4540    4541    6159    6154          0.0000
CQUAD4      6838       1    4541    4542    6164    6159          0.0000
CQUAD4      6839       1    4542    4543    6169    6164          0.0000
CQUAD4      6840       1    4543    4544    6174    6169          0.0000
CQUAD4      6841       1    4544    4545    6179    6174          0.0000
CQUAD4      6842       1    4545    4546    6184    6179          0.0000
CQUAD4      6843       1    4546    4547    6189    6184          0.0000
CQUAD4      6844       1    4547    4548    6194    6189          0.0000
CQUAD4      6845       1    4548    4549    6199    6194          0.0000
CQUAD4      6846       1    4549    4550    6204    6199          0.0000
CQUAD4      6847       1    4550    4551    6209    6204          0.0000
CQUAD4      6848       1    4551    4552    6214    6209          0.0000
CQUAD4      6849       1    4552    4553    6219    6214          0.0000
CQUAD4      6850       1    4553    4554    6224    6219          0.0000
CQUAD4      6851       1    4554    4555    6229    6224          0.0000
CQUAD4      6852       1    4555    4556    6234    6229          0.0000
CQUAD4      6853       1    4556    4557    6239    6234          0.0000
CQUAD4      6854       1    4557    4558    6244    6239          0.0000
CQUAD4      6855       1    4558    4559    6249    6244          0.0000
CQUAD4      6856       1    4559    4560    6254    6249          0.0000
CQUAD4      6857       1    4560    4561    6259    6254          0.0000
CQUAD4      6858       1    4561    4562    6264    6259          0.0000
CQUAD4      6859       1    4562    4563    6269    6264          0.0000
CQUAD4      6860       1    4563    4564    6274    6269          0.0000
CQUAD4      6861       1    4564    4565    6279    6274          0.0000
CQUAD4      6862       1    4565    4566    6284    6279          0.0000
CQUAD4      6863       1    4566    4567    6289    6284          0.0000
CQUAD4      6864       1    4567    4568    6294    6289          0.0000
CQUAD4      6865       1    4568    4569    6299    6294          0.0000
CQUAD4      6866       1    4569    4570    6304    6299          0.0000
CQUAD4      6867       1    4570    4571    6309    6304          0.0000
CQUAD4      6868       1    4571    4572    6314    6309          0.0000
CQUAD4      6869       1    4572    4573    6319    6314          0.0000
CQUAD4      6870       1    4573    4574    6324    6319          0.0000
CQUAD4      6871       1    4574    4575    6329    6324          0.0000
CQUAD4      6872       1    4575    4576    6334    6329          0.0000
CQUAD4      6873       1    4576    4577    6339    6334          0.0000
CQUAD4      6874       1    4577    4578    6344    6339          0.0000
CQUAD4      6875       1    4578    4579    6349    6344          0.0000
CQUAD4      6876       1    4579    4580    6354    6349          0.0000
CQUAD4      6877       1    4580    4581    6359    6354          0.0000
CQUAD4      6878       1    4581    4582    6364    6359          0.0000
CQUAD4      6879       1    4582    4583    6369    6364          0.0000
CQUAD4      6880       1    4583    4584    6374    6369          0.0000
CQUAD4      6881       1    4584    4585    6379    6374          0.0000
CQUAD4      6882       1    4585    4586    6384    6379          0.0000
CQUAD4      6883       1    4586    4587    6389    6384          0.0000
CQUAD4      6884       1    4587    4588    6394    6389          0.0000
CQUAD4      6885       1    4588    4589    6399    6394          0.0000
CQUAD4      6886       1    4589    4590    6404    6399          0.0000
CQUAD4      6887       1    4590    4591    6409    6404          0.0000
CQUAD4      6888       1    4591    4592    6414    6409          0.0000
CQUAD4      6889       1    4592    4593    6419    6414          0.0000
CQUAD4      6890       1    4593    4594    6424    6419          0.0000
CQUAD4      6891       1    4594    4595    6429    6424          0.0000
CQUAD4      6892       1    4595    4596    6434    6429          0.0000
CQUAD4      6893       1    4596    4597    6439    6434          0.0000
CQUAD4      6894       1    4597    4598    6444    6439          0.0000
CQUAD4      6895       1    4598    4599    6449    6444          0.0000
CQUAD4      6896       1    4599    4600    6454    6449          0.0000
CQUAD4      6897       1    4600    4601    6459    6454          0.0000
CQUAD4      6898       1    4601    4602    6464    6459          0.0000
CQUAD4      6899       1    4602    4603    6469    6464          0.0000
CQUAD4      6900       1    4603    4604    6474    6469          0.0000
CQUAD4      6901       1    4604    4605    6479    6474          0.0000
CQUAD4      6902       1    4605    4606    6484    6479          0.0000
CQUAD4      6903       1    4606    4607    6489    6484          0.0000
CQUAD4      6904       1    4607    4608    6494    6489          0.0000
CQUAD4      6905       1    4608    4609    6499    6494          0.0000
CQUAD4      6906       1    4609    4610    6504    6499          0.0000
CQUAD4      6907       1    4610    4611    6509    6504          0.0000
CQUAD4      6908       1    4611    4612    6514    6509          0.0000
CQUAD4      6909       1    4612    4613    6519    6514          0.0000
CQUAD4      6910       1    4613    4614    6524    6519          0.0000
CQUAD4      6911       1    4614    4615    6529    6524          0.0000
CQUAD4      6912       1    4615    4616    6534    6529          0.0000
CQUAD4      6913       1    4616    4617    6539    6534          0.0000
CQUAD4      6914       1    4617    4618    6544    6539          0.0000
CQUAD4      6915       1    4618    4619    6549    6544          0.0000
CQUAD4      6916       1    4619    4620    6554    6549          0.0000
CQUAD4      6917       1    4620    4621    6559    6554          0.0000
CQUAD4      6918       1    4621    4622    6564    6559          0.0000
CQUAD4      6919       1    4622    4623    6569    6564          0.0000
CQUAD4      6920       1    4623    4624    6574    6569          0.0000
CQUAD4      6921       1    4624    4625    6579    6574          0.0000
CQUAD4      6922       1    4625    4626    6584    6579          0.0000
CQUAD4      6923       1    4626    4627    6589    6584          0.0000
CQUAD4      6924       1    4627    4628    6594    6589          0.0000
CQUAD4      6925       1    4628    4629    6599    6594          0.0000
CQUAD4      6926       1    4629    4630    6604    6599          0.0000
CQUAD4      6927       1    4630    4631    6609    6604          0.0000
CQUAD4      6928       1    4631    4632    6614    6609          0.0000
CQUAD4      6929       1    4632    4633    6619    6614          0.0000
CQUAD4      6930       1    4633    4634    6624    6619          0.0000
CQUAD4      6931       1    4634    4635    6629    6624          0.0000
CQUAD4      6932       1    4635    4636    6634    6629          0.0000
CQUAD4      6933       1    4636    4637    6639    6634          0.0000
CQUAD4      6934       1    4637    4638    6644    6639          0.0000
CQUAD4      6935       1    4638    4639    6649    6644          0.0000
CQUAD4      6936       1    4639    4640    6654    6649          0.0000
CQUAD4      6937       1    4640    4641    6659    6654          0.0000
CQUAD4      6938       1    4641    4642    6664    6659          0.0000
CQUAD4      6939       1    4642    4643    6669    6664          0.0000
CQUAD4      6940       1    4643    4644    6674    6669          0.0000
CQUAD4      6941       1    4644    4645    6679    6674          0.0000
CQUAD4      6942       1    4645    4646    6684    6679          0.0000
CQUAD4      6943       1    4646    4647    6689    6684          0.0000
CQUAD4      6944       1    4647    4648    6694    6689          0.0000
CQUAD4      6945       1    4648    4649    6699    6694          0.0000
CQUAD4      6946       1    4649    4650    6704    6699          0.0000
CQUAD4      6947       1    4650    4651    6709    6704          0.0000
CQUAD4      6948       1    4651    4652    6714    6709          0.0000
CQUAD4      6949       1    4652    4653    6719    6714          0.0000
CQUAD4      6950       1    4653    4654    6724    6719          0.0000
CQUAD4      6951       1    4654    4655    6729    6724          0.0000
CQUAD4      6952       1    4655    4656    6734    6729          0.0000
CQUAD4      6953       1    4656    4657    6739    6734          0.0000
CQUAD4      6954       1    4657    4658    6744    6739          0.0000
CQUAD4      6955       1    4658    4659    6749    6744          0.0000
CQUAD4      6956       1    4659    4660    6754    6749          0.0000
CQUAD4      6957       1    4660    4661    6759    6754          0.0000
CQUAD4      6958       1    4661    4662    6764    6759          0.0000
CQUAD4      6959       1    4662    4663    6769    6764          0.0000
CQUAD4      6960       1    4663    4664    6774    6769          0.0000
CQUAD4      6961       1    4664    4665    6779    6774          0.0000
CQUAD4      6962       1    4665    4666    6784    6779          0.0000
CQUAD4      6963       1    4666    4667    6789    6784          0.0000
CQUAD4      6964       1    4667    4668    6794    6789          0.0000
CQUAD4      6965       1    4668    4669    6799    6794          0.0000
CQUAD4      6966       1    4669    4671    7153    6799          0.0000
CQUAD4      6967       1    6799    7153    7154    6800          0.0000
CQUAD4      6968       1    6800    7154    7155    6801          0.0000
CQUAD4      6969       1    6801    7155    7156    6802          0.0000
CQUAD4      6970       1    6802    7156    7157    6803          0.0000
CQUAD4      6971       1    6803    7157    7161    6984          0.0000
CQUAD4      6972       1    6798    6803    6984    6985          0.0000
CQUAD4      6973       1    6793    6798    6985    6986          0.0000
CQUAD4      6974       1    6788    6793    6986    6987          0.0000
CQUAD4      6975       1    6783    6788    6987    6988          0.0000
CQUAD4      6976       1    6778    6783    6988    6989          0.0000
CQUAD4      6977       1    6773    6778    6989    6990          0.0000
CQUAD4      6978       1    6768    6773    6990    6991          0.0000
CQUAD4      6979       1    6763    6768    6991    6992          0.0000
CQUAD4      6980       1    6758    6763    6992    6993          0.0000
CQUAD4      6981       1    6753    6758    6993    6994          0.0000
CQUAD4      6982       1    6748    6753    6994    6995          0.0000
CQUAD4      6983       1    6743    6748    6995    6996          0.0000
CQUAD4      6984       1    6738    6743    6996    6997          0.0000
CQUAD4      6985       1    6733    6738    6997    6998          0.0000
CQUAD4      6986       1    6728    6733    6998    6999          0.0000
CQUAD4      6987       1    6723    6728    6999    7000          0.0000
CQUAD4      6988       1    6718    6723    7000    7001          0.0000
CQUAD4      6989       1    6713    6718    7001    7002          0.0000
CQUAD4      6990       1    6708    6713    7002    7003          0.0000
CQUAD4      6991       1    6703    6708    7003    7004          0.0000
CQUAD4      6992       1    6698    6703    7004    7005          0.0000
CQUAD4      6993       1    6693    6698    7005    7006          0.0000
CQUAD4      6994       1    6688    6693    7006    7007          0.0000
CQUAD4      6995       1    6683    6688    7007    7008          0.0000
CQUAD4      6996       1    6678    6683    7008    7009          0.0000
CQUAD4      6997       1    6673    6678    7009    7010          0.0000
CQUAD4      6998       1    6668    6673    7010    7011          0.0000
CQUAD4      6999       1    6663    6668    7011    7012          0.0000
CQUAD4      7000       1    6658    6663    7012    7013          0.0000
CQUAD4      7001       1    6653    6658    7013    7014          0.0000
CQUAD4      7002       1    6648    6653    7014    7015          0.0000
CQUAD4      7003       1    6643    6648    7015    7016          0.0000
CQUAD4      7004       1    6638    6643    7016    7017          0.0000
CQUAD4      7005       1    6633    6638    7017    7018          0.0000
CQUAD4      7006       1    6628    6633    7018    7019          0.0000
CQUAD4      7007       1    6623    6628    7019    7020          0.0000
CQUAD4      7008       1    6618    6623    7020    7021          0.0000
CQUAD4      7009       1    6613    6618    7021    7022          0.0000
CQUAD4      7010       1    6608    6613    7022    7023          0.0000
CQUAD4      7011       1    6603    6608    7023    7024          0.0000
CQUAD4      7012       1    6598    6603    7024    7025          0.0000
CQUAD4      7013       1    6593    6598    7025    7026          0.0000
CQUAD4      7014       1    6588    6593    7026    7027          0.0000
CQUAD4      7015       1    6583    6588    7027    7028          0.0000
CQUAD4      7016       1    6578    6583    7028    7029          0.0000
CQUAD4      7017       1    6573    6578    7029    7030          0.0000
CQUAD4      7018       1    6568    6573    7030    7031          0.0000
CQUAD4      7019       1    6563    6568    7031    7032          0.0000
CQUAD4      7020       1    6558    6563    7032    7033          0.0000
CQUAD4      7021       1    6553    6558    7033    7034          0.0000
CQUAD4      7022       1    6548    6553    7034    7035          0.0000
CQUAD4      7023       1    6543    6548    7035    7036          0.0000
CQUAD4      7024       1    6538    6543    7036    7037          0.0000
CQUAD4      7025       1    6533    6538    7037    7038          0.0000
CQUAD4      7026       1    6528    6533    7038    7039          0.0000
CQUAD4      7027       1    6523    6528    7039    7040          0.0000
CQUAD4      7028       1    6518    6523    7040    7041          0.0000
CQUAD4      7029       1    6513    6518    7041    7042          0.0000
CQUAD4      7030       1    6508    6513    7042    7043          0.0000
CQUAD4      7031       1    6503    6508    7043    7044          0.0000
CQUAD4      7032       1    6498    6503    7044    7045          0.0000
CQUAD4      7033       1    6493    6498    7045    7046          0.0000
CQUAD4      7034       1    6488    6493    7046    7047          0.0000
CQUAD4      7035       1    6483    6488    7047    7048          0.0000
CQUAD4      7036       1    6478    6483    7048    7049          0.0000
CQUAD4      7037       1    6473    6478    7049    7050          0.0000
CQUAD4      7038       1    6468    6473    7050    7051          0.0000
CQUAD4      7039       1    6463    6468    7051    7052          0.0000
CQUAD4      7040       1    6458    6463    7052    7053          0.0000
CQUAD4      7041       1    6453    6458    7053    7054          0.0000
CQUAD4      7042       1    6448    6453    7054    7055          0.0000
CQUAD4      7043       1    6443    6448    7055    7056          0.0000
CQUAD4      7044       1    6438    6443    7056    7057          0.0000
CQUAD4      7045       1    6433    6438    7057    7058          0.0000
CQUAD4      7046       1    6428    6433    7058    7059          0.0000
CQUAD4      7047       1    6423    6428    7059    7060          0.0000
CQUAD4      7048       1    6418    6423    7060    7061          0.0000
CQUAD4      7049       1    6413    6418    7061    7062          0.0000
CQUAD4      7050       1    6408    6413    7062    7063          0.0000
CQUAD4      7051       1    6403    6408    7063    7064          0.0000
CQUAD4      7052       1    6398    6403    7064    7065          0.0000
CQUAD4      7053       1    6393    6398    7065    7066          0.0000
CQUAD4      7054       1    6388    6393    7066    7067          0.0000
CQUAD4      7055       1    6383    6388    7067    7068          0.0000
CQUAD4      7056       1    6378    6383    7068    7069          0.0000
CQUAD4      7057       1    6373    6378    7069    7070          0.0000
CQUAD4      7058       1    6368    6373    7070    7071          0.0000
CQUAD4      7059       1    6363    6368    7071    7072          0.0000
CQUAD4      7060       1    6358    6363    7072    7073          0.0000
CQUAD4      7061       1    6353    6358    7073    7074          0.0000
CQUAD4      7062       1    6348    6353    7074    7075          0.0000
CQUAD4      7063       1    6343    6348    7075    7076          0.0000
CQUAD4      7064       1    6338    6343    7076    7077          0.0000
CQUAD4      7065       1    6333    6338    7077    7078          0.0000
CQUAD4      7066       1    6328    6333    7078    7079          0.0000
CQUAD4      7067       1    6323    6328    7079    7080          0.0000
CQUAD4      7068       1    6318    6323    7080    7081          0.0000
CQUAD4      7069       1    6313    6318    7081    7082          0.0000
CQUAD4      7070       1    6308    6313    7082    7083          0.0000
CQUAD4      7071       1    6303    6308    7083    7084          0.0000
CQUAD4      7072       1    6298    6303    7084    7085          0.0000
CQUAD4      7073       1    6293    6298    7085    7086          0.0000
CQUAD4      7074       1    6288    6293    7086    7087          0.0000
CQUAD4      7075       1    6283    6288    7087    7088          0.0000
CQUAD4      7076       1    6278    6283    7088    7089          0.0000
CQUAD4      7077       1    6273    6278    7089    7090          0.0000
CQUAD4      7078       1    6268    6273    7090    7091          0.0000
CQUAD4      7079       1    6263    6268    7091    7092          0.0000
CQUAD4      7080       1    6258    6263    7092    7093          0.0000
CQUAD4      7081       1    6253    6258    7093    7094          0.0000
CQUAD4      7082       1    6248    6253    7094    7095          0.0000
CQUAD4      7083       1    6243    6248    7095    7096          0.0000
CQUAD4      7084       1    6238    6243    7096    7097          0.0000
CQUAD4      7085       1    6233    6238    7097    7098          0.0000
CQUAD4      7086       1    6228    6233    7098    7099          0.0000
CQUAD4      7087       1    6223    6228    7099    7100          0.0000
CQUAD4      7088       1    6218    6223    7100    7101          0.0000
CQUAD4      7089       1    6213    6218    7101    7102          0.0000
CQUAD4      7090       1    6208    6213    7102    7103          0.0000
CQUAD4      7091       1    6203    6208    7103    7104          0.0000
CQUAD4      7092       1    6198    6203    7104    7105          0.0000
CQUAD4      7093       1    6193    6198    7105    7106          0.0000
CQUAD4      7094       1    6188    6193    7106    7107          0.0000
CQUAD4      7095       1    6183    6188    7107    7108          0.0000
CQUAD4      7096       1    6178    6183    7108    7109          0.0000
CQUAD4      7097       1    6173    6178    7109    7110          0.0000
CQUAD4      7098       1    6168    6173    7110    7111          0.0000
CQUAD4      7099       1    6163    6168    7111    7112          0.0000
CQUAD4      7100       1    6158    6163    7112    7113          0.0000
CQUAD4      7101       1    6153    6158    7113    7114          0.0000
CQUAD4      7102       1    6148    6153    7114    7115          0.0000
CQUAD4      7103       1    6143    6148    7115    7116          0.0000
CQUAD4      7104       1    6138    6143    7116    7117          0.0000
CQUAD4      7105       1    6133    6138    7117    7118          0.0000
CQUAD4      7106       1    6128    6133    7118    7119          0.0000
CQUAD4      7107       1    6123    6128    7119    7120          0.0000
CQUAD4      7108       1    6118    6123    7120    7121          0.0000
CQUAD4      7109       1    6113    6118    7121    7122          0.0000
CQUAD4      7110       1    6108    6113    7122    7123          0.0000
CQUAD4      7111       1    6103    6108    7123    7124          0.0000
CQUAD4      7112       1    6098    6103    7124    7125          0.0000
CQUAD4      7113       1    6093    6098    7125    7126          0.0000
CQUAD4      7114       1    6088    6093    7126    7127          0.0000
CQUAD4      7115       1    6083    6088    7127    7128          0.0000
CQUAD4      7116       1    6078    6083    7128    7129          0.0000
CQUAD4      7117       1    6073    6078    7129    7130          0.0000
CQUAD4      7118       1    6068    6073    7130    7131          0.0000
CQUAD4      7119       1    6063    6068    7131    7132          0.0000
CQUAD4      7120       1    6058    6063    7132    7133          0.0000
CQUAD4      7121       1    6053    6058    7133    7134          0.0000
CQUAD4      7122       1    6048    6053    7134    7135          0.0000
CQUAD4      7123       1    6043    6048    7135    7136          0.0000
CQUAD4      7124       1    6038    6043    7136    7137          0.0000
CQUAD4      7125       1    6033    6038    7137    7138          0.0000
CQUAD4      7126       1    6028    6033    7138    7139          0.0000
CQUAD4      7127       1    6023    6028    7139    7140          0.0000
CQUAD4      7128       1    6018    6023    7140    7141          0.0000
CQUAD4      7129       1    6013    6018    7141    7142          0.0000
CQUAD4      7130       1    6008    6013    7142    7143          0.0000
CQUAD4      7131       1    6003    6008    7143    7144          0.0000
CQUAD4      7132       1    5998    6003    7144    7145          0.0000
CQUAD4      7133       1    5993    5998    7145    7146          0.0000
CQUAD4      7134       1    5988    5993    7146    7147          0.0000
CQUAD4      7135       1    7152    5988    7147    7160          0.0000
CQUAD4      7136       1    7151    5987    5988    7152          0.0000
CQUAD4      7137       1    7150    5986    5987    7151          0.0000
CQUAD4      7138       1    7149    5985    5986    7150          0.0000
CQUAD4      7139       1    7148    5984    5985    7149          0.0000
$*  NX Mesh Collector: Cbush Collector(1)
$*  NX Mesh: 1d_manual_mesh(1)
CBUSH       7140       2    7166    7152                               0
CBUSH       7141       2    7165    7151                               0
CBUSH       7142       2    7164    7150                               0
CBUSH       7143       2    7163    7149                               0
CBUSH       7144       2    7162    7148                               0
CBUSH       7145       2    7168    4670                               0
CBUSH       7146       2    7181    4502                               0
CBUSH       7147       2    7180    4501                               0
CBUSH       7148       2    7179    4500                               0
CBUSH       7149       2    7182     661                               0
CBUSH       7150       2    7202     495                               0
CBUSH       7151       2    7201     496                               0
CBUSH       7152       2    7190     664                               0
CBUSH       7153       2    7189    3817                               0
CBUSH       7154       2    7188    3818                               0
CBUSH       7155       2    7187    3819                               0
CBUSH       7156       2    7186    3820                               0
CBUSH       7157       2    7185    3821                               0
CBUSH       7158       2    7184    3822                               0
CBUSH       7159       2    7183    3823                               0
CBUSH       7160       2    7191    4006                               0
CBUSH       7161       2    7197    4001                               0
CBUSH       7162       2    7196    3644                               0
CBUSH       7163       2    7195    3645                               0
CBUSH       7164       2    7194    3646                               0
CBUSH       7165       2    7193    3647                               0
CBUSH       7166       2    7192    3648                               0
CBUSH       7167       2    7198    4004                               0
CBUSH       7168       2    7200    3649                               0
CBUSH       7169       2    7199    3650                               0
CBUSH       7170       2    7178    4003                               0
CBUSH       7171       2    7177    6805                               0
CBUSH       7172       2    7176    7159                               0
CBUSH       7173       2    7175    6970                               0
CBUSH       7174       2    7174    6971                               0
CBUSH       7175       2    7173    6972                               0
CBUSH       7176       2    7172    6973                               0
CBUSH       7177       2    7171    6974                               0
CBUSH       7178       2    7170    6975                               0
CBUSH       7179       2    7169    6976                               0
CBUSH       7180       2    7167    7160                               0
$*
$* PROPERTY CARDS
$*
$*  NX Property: SHELL_PROP
PSHELL         1       26.000000       21.000000       20.833333  0.0000
$*  NX Property: PBUSH1
PBUSH          2       K1.000+161.000+161.000+161.000+161.000+161.000+16
$*
$* MATERIAL CARDS
$*
$*  NX Material: AL_Custom
MAT1           28.0000+7        0.3300002.7000-6
$*
$* LOAD AND CONSTRAINT CARDS
$*
$*  NX Load and Constraint: UserDefined(1)
SPC            1    7162  123456  0.0000
SPC            1    7163  123456  0.0000
SPC            1    7164  123456  0.0000
SPC            1    7165  123456  0.0000
SPC            1    7166  123456  0.0000
SPC            1    7167  123456  0.0000
SPC            1    7168  123456  0.0000
SPC            1    7169  123456  0.0000
SPC            1    7170  123456  0.0000
SPC            1    7171  123456  0.0000
SPC            1    7172  123456  0.0000
SPC            1    7173  123456  0.0000
SPC            1    7174  123456  0.0000
SPC            1    7175  123456  0.0000
SPC            1    7176  123456  0.0000
SPC            1    7177  123456  0.0000
SPC            1    7178  123456  0.0000
SPC            1    7179  123456  0.0000
SPC            1    7180  123456  0.0000
SPC            1    7181  123456  0.0000
SPC            1    7182  123456  0.0000
SPC            1    7183  123456  0.0000
SPC            1    7184  123456  0.0000
SPC            1    7185  123456  0.0000
SPC            1    7186  123456  0.0000
SPC            1    7187  123456  0.0000
SPC            1    7188  123456  0.0000
SPC            1    7189  123456  0.0000
SPC            1    7190  123456  0.0000
SPC            1    7191  123456  0.0000
SPC            1    7192  123456  0.0000
SPC            1    7193  123456  0.0000
SPC            1    7194  123456  0.0000
SPC            1    7195  123456  0.0000
SPC            1    7196  123456  0.0000
SPC            1    7197  123456  0.0000
SPC            1    7198  123456  0.0000
SPC            1    7199  123456  0.0000
SPC            1    7200  123456  0.0000
SPC            1    7201  123456  0.0000
SPC            1    7202  123456  0.0000
ENDDATA 84306a50
